# 
# This is the geometry file that corresponds to the current relaxation step.
# If you do not want this file to be written, set the "write_restart_geometry" flag to .false.
#  aims_uuid : 74E02ACA-A5BA-4120-A4DC-A8212CF3B47C                                
# 
lattice_vector      5.85496233      0.00000000      0.00000000
lattice_vector      0.00000000      5.95932024      0.00000000
lattice_vector      0.00000000      0.00000000      7.43139602
atom_frac       0.50241532      0.00207105      0.00190706 Pd
atom_frac       0.00205800      0.00208362      0.50266426 Pd
atom_frac       0.00214583      0.50244286      0.00195552 Pd
atom_frac       0.50250304      0.50245513      0.50261546 Pd
atom_frac       0.61428405      0.12007015      0.40432433 Se
atom_frac       0.89104350      0.88488835      0.90453029 Se
atom_frac       0.11390484      0.38453497      0.60074462 Se
atom_frac       0.39062392      0.62041222      0.10024199 Se
atom_frac       0.39066855      0.88490304      0.60074514 Se
atom_frac       0.11393960      0.12007694      0.10026071 Se
atom_frac       0.89101355      0.62040546      0.40432681 Se
atom_frac       0.61426368      0.38452008      0.90454771 Se
# 
# What follows is the current estimated Hessian matrix constructed by the BFGS algorithm.
# This is NOT the true Hessian matrix of the system.
# If you do not want this information here, switch it off using the "hessian_to_restart_geometry" keyword.
# 
trust_radius             0.0122099144
hessian_block                1       1           5.947659           0.059019          -2.193945           0.059019           6.440337          -1.059631          -2.193945          -1.059631           4.800739
hessian_block                1       2          -0.029216           0.496218           0.046031           0.314544           0.221602          -0.134739          -0.025711          -0.044702          -0.037762
hessian_block                1       3          -0.057105           0.546350           0.038831          -0.063597          -0.131066           0.101052          -0.168397           0.154120           0.034999
hessian_block                1       4           0.500468           0.201030          -0.080436           0.111656          -0.495462          -0.184357           0.075015          -0.046913          -0.025522
hessian_block                1       5          -0.045182          -0.435908          -0.183579          -0.338657           0.349682           0.344179          -0.278195           0.333694           0.302886
hessian_block                1       6          -1.765071          -0.107131           0.590194           0.434334          -0.461926          -0.262414           1.252433          -0.257853          -0.447738
hessian_block                1       7          -0.359748           0.364523           0.271962           0.090673           0.178702           0.095952           0.168058          -0.066900          -0.075070
hessian_block                1       8          -0.214753          -0.518783           0.337735          -0.325552          -1.904287           0.756122           0.117165           0.695455          -0.550162
hessian_block                1       9          -0.129079           0.007815           0.179832          -0.416033          -0.458476          -0.158034           0.041504          -0.292112          -0.087043
hessian_block                1      10          -2.295949           0.905536           1.059708           0.062559          -0.403732          -0.361567           0.736500          -0.420884          -0.608335
hessian_block                1      11           0.065098          -0.635450          -0.238738           0.241622           0.225494           0.043343           0.030272           0.401464           0.291238
hessian_block                1      12          -0.051211          -0.883221           0.172402          -0.170566          -1.913843           0.820092           0.245303           0.604262          -0.496367
hessian_block                2       2           6.077245           0.341960           2.314430           0.341960           7.231052           1.903722           2.314430           1.903722           5.108472
hessian_block                2       3           0.894154           0.837382           0.459270          -0.434919          -0.497465          -0.314512           0.197373           0.104418           0.121040
hessian_block                2       4           0.211646           0.629927           0.182552          -0.507292           0.620013           0.382766           0.037120           0.471106           0.210871
hessian_block                2       5          -2.085992           0.019720          -0.995981           0.483882          -0.697419          -0.133205          -0.517831          -0.064001          -0.634948
hessian_block                2       6          -0.543740          -0.070984           0.107732          -0.300552          -0.878892          -0.385052          -0.182026          -0.324533          -0.318136
hessian_block                2       7           0.000588          -0.727087          -0.401826          -0.423287          -1.527995          -0.727521          -0.519542          -1.528455          -0.826178
hessian_block                2       8          -0.229618          -0.591813          -0.326062           0.057667          -0.397521          -0.241787          -0.194030          -0.268019          -0.026071
hessian_block                2       9          -2.037938           0.397498          -0.944338           0.592541          -0.790084           0.264520          -1.361050          -0.326310          -0.718290
hessian_block                2      10           0.501525          -0.169630          -0.006106           0.221052           0.915940           0.740587           0.162878           0.690480           0.525943
hessian_block                2      11          -0.602072          -0.656390          -0.157000          -0.484414          -3.217177          -1.718775           0.047239          -0.785892          -0.538335
hessian_block                2      12          -0.590668          -0.325126          -0.206960          -0.042856           0.664968           0.273959          -0.030590           0.262223           0.235261
hessian_block                3       3           6.581736          -0.544768           2.416190          -0.544768           6.300137          -1.267400           2.416190          -1.267400           4.852793
hessian_block                3       4           0.344846          -0.284909          -0.037318          -0.297533           0.105745          -0.090358           0.169220          -0.154974           0.042496
hessian_block                3       5          -0.593411           0.148187          -0.303420          -0.208079           0.472954           0.212432           0.286768           0.090784           0.315144
hessian_block                3       6          -0.761253           0.463066          -0.523824          -0.051568          -1.764432           0.709315          -0.706182           0.834679          -0.675429
hessian_block                3       7           0.088887           0.146586           0.218840           0.226859          -0.143171           0.133630          -0.616777           0.212289          -0.319108
hessian_block                3       8          -2.173398          -0.206739          -0.852215          -0.717143          -0.286694          -0.502708          -1.113049          -0.130459          -0.594548
hessian_block                3       9          -0.288670           0.344242           0.127844          -0.016563          -0.199949          -0.048056          -0.805264           0.386230          -0.260132
hessian_block                3      10           0.480149           0.543397           0.173731           1.162053          -2.177859           1.142154           0.242311           0.649299          -0.358421
hessian_block                3      11          -0.448101           0.083809          -0.199788          -0.549071           0.279017          -0.314013           0.366465           0.033826           0.288635
hessian_block                3      12          -2.501920          -0.194355          -1.049016          -0.387920          -0.310191          -0.233535          -0.737782          -0.440814          -0.345606
hessian_block                4       4           5.942273           0.169825          -1.954838           0.169825           6.971240           1.557963          -1.954838           1.557963           4.905242
hessian_block                4       5          -0.492809           0.606267           0.199033           0.102206          -2.275199          -1.146852          -0.025374          -1.391846          -0.657737
hessian_block                4       6          -0.025113           0.496865           0.152617          -0.237584          -0.416867          -0.261801           0.258246          -0.342931          -0.109284
hessian_block                4       7          -2.004283          -0.950618           0.668251          -0.201497          -0.162386           0.327519           0.737451          -0.096219          -0.595763
hessian_block                4       8          -0.286098          -0.235897          -0.189032           0.047738          -0.470599          -0.122596          -0.200688           0.041571           0.016423
hessian_block                4       9          -0.270812           0.677353           0.159232           0.124846          -2.214650          -0.993187           0.038990          -0.775233          -0.543313
hessian_block                4      10          -0.417411          -0.457145          -0.186455          -0.142727           0.825733           0.376578           0.099314           0.597692           0.306565
hessian_block                4      11          -1.818577           0.011893           0.897553          -0.830666          -1.323348          -0.236951           0.894647          -0.019803          -0.534006
hessian_block                4      12          -0.118217           0.374625          -0.027717           0.421813           0.482804           0.230107           0.087453           0.320755           0.085891
hessian_block                5       5           5.353023          -0.378315          -1.204582          -0.378315           6.304763          -0.915758          -1.204582          -0.915758           7.754615
hessian_block                5       6           0.266551          -0.447589          -0.430109           0.207783          -0.230016           0.384198           0.098877          -0.458299           0.506202
hessian_block                5       7          -0.366290           1.148957           0.077917          -0.938233           0.064749           0.366400           0.588646           0.559878          -1.101920
hessian_block                5       8           0.132693           0.198283           0.444450           0.534625          -0.048336          -0.530822           0.482119           0.497330          -0.877345
hessian_block                5       9          -1.352092          -0.403977           1.696825          -0.401169          -1.882472           2.093166           1.922638           2.224824          -3.518292
hessian_block                5      10          -0.139463           0.567447           0.471834           0.002447           0.005383          -0.474655           0.134839          -0.190727          -0.900763
hessian_block                5      11           0.513178          -0.955335          -0.025526           1.085935           0.172881          -0.068526          -0.676335          -0.123015           1.292346
hessian_block                5      12           0.375703           0.231178          -0.496177          -0.451335          -0.589946           0.177367          -0.062255          -0.870787           0.621679
hessian_block                6       6           5.729358           0.427617           1.830004           0.427617           5.829665           1.856862           1.830004           1.856862           8.661465
hessian_block                6       7          -0.075229          -0.147855          -0.026827           0.470369           0.190861           0.764299           0.048379           0.123282          -0.203133
hessian_block                6       8          -0.125336           0.395044           0.176451           0.127526           0.230852           0.390652          -0.048324          -0.241907          -0.766891
hessian_block                6       9           0.095447           0.124190           0.004322           0.288365           0.801260           0.177360           0.177243           0.002735          -0.529014
hessian_block                6      10          -1.999582          -1.326801          -2.824933          -1.025495          -2.060780          -3.046800          -2.049063          -2.485083          -4.376209
hessian_block                6      11           0.277943           0.347999          -0.155376          -0.769453           0.535506           0.188972          -0.413954           0.195282           0.560111
hessian_block                6      12           0.491937           0.127395           0.275014           0.146846          -0.128206           0.217591           0.559104           0.364583           0.799920
hessian_block                7       7           5.470117           0.521681           1.123086           0.521681           6.097679          -1.542651           1.123086          -1.542651           8.018150
hessian_block                7       8          -0.013230          -0.108413           0.041148           0.018499          -0.420597           0.943384           0.269186          -0.639503           1.070667
hessian_block                7       9           0.365900           0.597764          -0.250600          -0.658179          -0.423079          -0.363676           0.287974          -0.528714           1.500434
hessian_block                7      10           0.281348          -0.580165          -0.157180           0.065888          -0.331210          -0.511330          -0.459418          -0.859370           0.287805
hessian_block                7      11          -1.905247           0.438743          -1.684999           0.687430          -2.405832           2.995029          -1.470184           2.220420          -3.584600
hessian_block                7      12           0.083098          -0.094494           0.522329          -0.469822           0.529303          -0.724631          -0.558962           0.389538          -1.069419
hessian_block                8       8           4.763179           0.092627          -0.931992           0.092627           5.654064           1.416647          -0.931992           1.416647           7.211158
hessian_block                8       9           0.237638          -0.514248          -0.209488           0.165196           0.170081          -0.274370           0.047155           0.585933           1.092278
hessian_block                8      10           0.069379          -0.238063           0.235427          -0.629716          -0.501229           0.377772          -0.439958          -0.097365           0.716885
hessian_block                8      11           0.158176          -0.147976          -0.150378           0.589515           1.175450           0.649177           0.332911          -0.678065          -1.005850
hessian_block                8      12          -0.752722           1.064302           1.744051           0.850697          -1.554160          -2.123692           1.359408          -1.919395          -3.184682
hessian_block                9       9           5.033343          -0.532657          -0.795470          -0.532657           6.453110          -1.411169          -0.795470          -1.411169           7.862810
hessian_block                9      10          -0.049261           0.261507          -0.143837          -0.193199          -0.079404          -0.110933          -0.376280          -0.106475           0.511696
hessian_block                9      11          -0.171558           0.871080          -0.092028          -0.725870           0.484599           0.832294           0.409272           0.140720          -1.218979
hessian_block                9      12           0.132993          -0.278933           0.682142           0.221088          -0.213910          -0.587545          -0.001153           0.679201          -0.990291
hessian_block               10      10           5.860824           0.567340           1.684740           0.567340           6.881932           2.396136           1.684740           2.396136           8.385414
hessian_block               10      11          -0.177230           0.050763           0.446562           0.396048          -1.372643          -0.149405           0.165383          -0.512258          -0.803165
hessian_block               10      12          -0.548419          -0.140963          -0.182424          -0.469472          -0.055109          -0.024298          -0.472312          -0.015684          -0.585552
hessian_block               11      11           5.556559           0.265439           0.794898           0.265439           7.984725          -1.416483           0.794898          -1.416483           7.691148
hessian_block               11      12           0.117740           0.093486          -0.480614           0.325427          -0.891647           0.543803           0.564820          -0.804664           0.663322
hessian_block               12      12           4.927597           0.026102          -0.953032           0.026102           5.626960           1.430782          -0.953032           1.430782           7.367708
hessian_block_lv             1       1          23.680775          -3.280325           4.991467          -3.280325          24.125386           2.575566           4.991467           2.575566           1.936567
hessian_block_lv_atom        1       1           0.236136           0.378694           0.057385          -0.478667          -0.665253          -0.182193          -0.074793          -0.247092           0.013433
hessian_block_lv_atom        1       2          -0.591836          -0.966545          -0.245134           0.184475          -0.230385          -0.000598           0.052224          -0.280702          -0.092137
hessian_block_lv_atom        1       3          -0.636412          -1.072898          -0.267143           0.259455           0.511081           0.126356          -0.089125          -0.471462          -0.040357
hessian_block_lv_atom        1       4           0.089351           0.086712          -0.005110           0.862053           0.870657           0.287563           0.097772          -0.006309          -0.025669
hessian_block_lv_atom        1       5           0.290130           0.459264           0.369870           0.086966          -0.040146           0.251650          -1.980716          -2.911302          -1.518667
hessian_block_lv_atom        1       6           0.195914           0.009053          -0.256299          -0.467330          -0.256164          -0.338164          -1.961919          -2.539485          -1.447047
hessian_block_lv_atom        1       7          -0.615047          -0.882418           0.088542          -0.761951          -1.034098          -0.543670           1.497808           2.661382           1.380128
hessian_block_lv_atom        1       8          -0.079400           0.198140          -0.249711           0.099216           0.254796           0.271904           1.694373           2.417970           1.392416
hessian_block_lv_atom        1       9           0.134033           0.233923          -0.196447          -0.606454          -0.414397          -0.383479           1.827793           2.958021           1.471538
hessian_block_lv_atom        1      10          -0.259157          -0.018324           0.300345           0.566248           0.163654           0.368951           2.156898           3.053582           1.581890
hessian_block_lv_atom        1      11           0.697301           1.077146          -0.009992           0.232415           0.849845           0.388742          -1.739349          -2.699000          -1.475619
hessian_block_lv_atom        1      12           0.538986           0.497250           0.413692           0.023575          -0.009586          -0.247062          -1.480966          -1.935601          -1.239911
symmetry_n_params 39 3 36
symmetry_params a1 b2 c3 x0 x1 x2 x3 x4 x5 x6 x7 x8 x9 x10 x11 x12 x13 x14 x15 x16 x17 x18 x19 x20 x21 x22 x23 x24 x25 x26 x27 x28 x29 x30 x31 x32 x33 x34 x35
symmetry_lv a1 , 0 , 0 
symmetry_lv 0 , b2 , 0 
symmetry_lv 0 , 0 , c3
symmetry_frac x0 , x1 , x2
symmetry_frac x3 , x4 , x5
symmetry_frac x6 , x7 , x8
symmetry_frac x9 , x10 , x11
symmetry_frac x12 , x13 , x14
symmetry_frac x15 , x16 , x17
symmetry_frac x18 , x19 , x20
symmetry_frac x21 , x22 , x23
symmetry_frac x24 , x25 , x26
symmetry_frac x27 , x28 , x29
symmetry_frac x30 , x31 , x32
symmetry_frac x33 , x34 , x35
