# 
# This is the geometry file that corresponds to the current relaxation step.
# If you do not want this file to be written, set the "write_restart_geometry" flag to .false.
#  aims_uuid : 4D741CE3-4FEE-4565-A31A-8255E0132855                                
# 
lattice_vector      5.84557783      0.00000000      0.00000000
lattice_vector      0.00000000      5.95482368      0.00000000
lattice_vector      0.00000000      0.00000000      7.50425249
atom_frac       0.50232454      0.00241679      0.00216408 Pd
atom_frac       0.00233843      0.00236835      0.50264559 Pd
atom_frac       0.00250975      0.50238579      0.00217032 Pd
atom_frac       0.50244961      0.50239012      0.50262511 Pd
atom_frac       0.61452290      0.12077023      0.40565464 Se
atom_frac       0.89024807      0.88402160      0.90549248 Se
atom_frac       0.11452231      0.38407058      0.59932978 Se
atom_frac       0.39034428      0.62076887      0.09914372 Se
atom_frac       0.39033095      0.88410018      0.59933941 Se
atom_frac       0.11449727      0.12074936      0.09915070 Se
atom_frac       0.89027301      0.62075603      0.40565610 Se
atom_frac       0.61450277      0.38406596      0.90549199 Se
# 
# What follows is the current estimated Hessian matrix constructed by the BFGS algorithm.
# This is NOT the true Hessian matrix of the system.
# If you do not want this information here, switch it off using the "hessian_to_restart_geometry" keyword.
# 
trust_radius             0.0976793152
hessian_block                1       1           5.953085           0.049564          -2.150980           0.049564           6.463183          -1.239408          -2.150980          -1.239408           4.676620
hessian_block                1       2          -0.024737           0.449459          -0.093387           0.318156           0.157521          -0.228130          -0.057876           0.052015          -0.009109
hessian_block                1       3          -0.059249           0.512357          -0.147943          -0.075249          -0.065980           0.102296          -0.137738           0.003605          -0.106972
hessian_block                1       4           0.520563           0.110869          -0.062283           0.106754          -0.487609          -0.107682           0.050799           0.039011           0.017419
hessian_block                1       5          -0.063740          -0.404388          -0.087960          -0.351361           0.324898           0.221213          -0.239732           0.129116           0.096000
hessian_block                1       6          -1.800009           0.133161           0.822043           0.475710          -0.534941          -0.106156           1.256553          -0.244626          -0.435671
hessian_block                1       7          -0.368431           0.318666           0.116105           0.123288           0.090693           0.101273           0.135648           0.132696           0.150146
hessian_block                1       8          -0.256616          -0.243598           0.345114          -0.328893          -1.926261           0.833264           0.116042           0.730883          -0.442379
hessian_block                1       9          -0.135068           0.100489           0.173696          -0.417350          -0.359069          -0.055581           0.007950          -0.102240           0.165629
hessian_block                1      10          -2.256106           0.638989           0.843877           0.018816          -0.338673          -0.448110           0.714130          -0.324879          -0.573508
hessian_block                1      11           0.072731          -0.572297          -0.052244           0.225928           0.289763           0.071292           0.080231           0.139453           0.113022
hessian_block                1      12          -0.016512          -1.093273           0.293959          -0.145361          -1.966501           0.855729           0.224976           0.684375          -0.549336
hessian_block                2       2           6.015881           0.296403           2.393844           0.296403           7.236308           1.980910           2.393844           1.980910           5.144464
hessian_block                2       3           0.825847           0.795598           0.575830          -0.409716          -0.502714          -0.320604           0.076185           0.036484           0.182325
hessian_block                2       4           0.173230           0.632581           0.167964          -0.471802           0.681414           0.363283           0.106181           0.524745           0.218251
hessian_block                2       5          -2.009148           0.127415          -0.990616           0.463736          -0.665664          -0.011043          -0.665310          -0.175191          -0.537400
hessian_block                2       6          -0.378257          -0.031925          -0.046602          -0.325419          -0.947495          -0.557205          -0.173401          -0.373066          -0.352442
hessian_block                2       7          -0.040234          -0.709320          -0.264282          -0.490959          -1.601865          -0.787221          -0.371840          -1.445818          -0.952967
hessian_block                2       8          -0.130998          -0.667084          -0.383851           0.093170          -0.318440          -0.244949          -0.159544          -0.231370          -0.094138
hessian_block                2       9          -2.026949           0.329195          -0.991005           0.636099          -0.838945           0.146872          -1.203193          -0.210158          -0.844371
hessian_block                2      10           0.331044          -0.198870           0.142774           0.275246           1.040964           0.898051           0.208111           0.750491           0.526280
hessian_block                2      11          -0.547584          -0.670562          -0.317167          -0.434986          -3.197628          -1.721634          -0.116514          -0.878676          -0.452212
hessian_block                2      12          -0.622179          -0.221588          -0.229014          -0.081230           0.603566           0.201525          -0.001131           0.249777           0.273185
hessian_block                3       3           6.524228          -0.503908           2.264884          -0.503908           6.325525          -1.262976           2.264884          -1.262976           4.711405
hessian_block                3       4           0.287317          -0.317021          -0.031543          -0.246541           0.074624          -0.009560           0.264124          -0.157826           0.103265
hessian_block                3       5          -0.490347           0.097005          -0.183190          -0.202649           0.474260           0.141861           0.068576           0.086645           0.109576
hessian_block                3       6          -0.572014           0.483103          -0.328494          -0.147952          -1.794704           0.778365          -0.724725           0.844120          -0.681068
hessian_block                3       7           0.073067           0.153643           0.119597           0.114302          -0.143792           0.094946          -0.422832           0.214730          -0.113575
hessian_block                3       8          -2.046365          -0.091018          -0.859399          -0.670946          -0.338718          -0.413540          -1.064226          -0.142434          -0.505022
hessian_block                3       9          -0.278734           0.404124           0.097972           0.013937          -0.166888           0.006300          -0.593801           0.369650          -0.022024
hessian_block                3      10           0.279384           0.507375          -0.009218           1.292608          -2.184793           1.144498           0.345623           0.670008          -0.305482
hessian_block                3      11          -0.416337           0.076765          -0.075853          -0.488808           0.282401          -0.277394           0.123717           0.000483           0.105845
hessian_block                3      12          -2.560882          -0.325104          -0.933204          -0.467997          -0.312196          -0.242589          -0.689226          -0.404092          -0.376412
hessian_block                4       4           5.993490           0.211966          -1.966400           0.211966           6.982633           1.528124          -1.966400           1.528124           4.897197
hessian_block                4       5          -0.441120           0.615908           0.171093           0.085636          -2.212330          -1.070482          -0.032056          -1.315552          -0.564781
hessian_block                4       6          -0.056390           0.332050           0.036673          -0.175859          -0.468235          -0.365221           0.240087          -0.392866          -0.127754
hessian_block                4       7          -2.024172          -0.873092           0.756942          -0.181531          -0.158718           0.305622           0.741012          -0.201042          -0.702612
hessian_block                4       8          -0.444319          -0.412880          -0.206092           0.110483          -0.441450          -0.148482          -0.170188           0.026253          -0.037167
hessian_block                4       9          -0.341210           0.601715           0.147811           0.092184          -2.317160          -1.060426           0.067461          -0.863127          -0.658035
hessian_block                4      10          -0.365645          -0.280325          -0.076344          -0.160428           0.889490           0.455864           0.085824           0.598012           0.298044
hessian_block                4      11          -1.795311          -0.078912           0.791381          -0.846487          -1.358994          -0.246909           0.931736           0.088137          -0.454162
hessian_block                4      12           0.059482           0.495158          -0.076170           0.437609           0.463360           0.195977           0.028384           0.286021           0.112198
hessian_block                5       5           5.354128          -0.270946          -1.085064          -0.270946           6.378312          -1.057723          -1.085064          -1.057723           7.535328
hessian_block                5       6           0.024925          -0.420601          -0.095359           0.104591          -0.386193           0.560165          -0.014564          -0.563162           0.518967
hessian_block                5       7          -0.254723           1.200104          -0.133397          -0.943761          -0.047914           0.347724           0.429233           0.650933          -0.829202
hessian_block                5       8          -0.109131           0.145532           0.520000           0.560799           0.020795          -0.453995           0.460037           0.539085          -0.770708
hessian_block                5       9          -1.453363          -0.468039           1.706198          -0.555364          -1.956628           2.233519           1.789607           2.354981          -3.217853
hessian_block                5      10           0.125135           0.548355           0.162640           0.132907           0.222120          -0.551985           0.155375          -0.069925          -0.888338
hessian_block                5      11           0.371064          -1.011771           0.209987           1.022905           0.185732          -0.018623          -0.516547          -0.256806           1.087939
hessian_block                5      12           0.512231           0.282004          -0.416482          -0.487066          -0.690363           0.215902          -0.127402          -0.878933           0.562339
hessian_block                6       6           5.529503           0.436046           1.948376           0.436046           6.157095           2.004095           1.948376           2.004095           8.679938
hessian_block                6       7           0.006180          -0.291579          -0.159107           0.583317           0.376127           0.848922          -0.241970           0.039631          -0.162763
hessian_block                6       8           0.040985           0.375235           0.351417          -0.061483           0.185139           0.296233          -0.203116          -0.262873          -0.744870
hessian_block                6       9           0.225767           0.172999           0.126876           0.313853           0.922166           0.320244          -0.197801          -0.116759          -0.518890
hessian_block                6      10          -1.836046          -1.324315          -2.943378          -1.191641          -2.424295          -3.220830          -2.201731          -2.683749          -4.395164
hessian_block                6      11           0.174866           0.504988          -0.022560          -0.798896           0.513227           0.168931          -0.142494           0.394058           0.548194
hessian_block                6      12           0.206402           0.195558           0.114428           0.223018           0.049135           0.312004           0.650474           0.315648           0.773388
hessian_block                7       7           5.487113           0.406356           1.277279           0.406356           6.167600          -1.478585           1.277279          -1.478585           7.733120
hessian_block                7       8          -0.039477          -0.074734           0.026920           0.089121          -0.415197           0.834032           0.347481          -0.612808           0.948093
hessian_block                7       9           0.317730           0.628462          -0.219190          -0.704527          -0.323009          -0.444137           0.487727          -0.474358           1.169098
hessian_block                7      10           0.209733          -0.689543           0.107899           0.282889          -0.515270          -0.541741          -0.292978          -0.929143           0.208963
hessian_block                7      11          -1.923282           0.575081          -1.861965           0.696115          -2.391768           2.949948          -1.671767           2.212236          -3.336585
hessian_block                7      12           0.122409          -0.050277           0.399806          -0.568375           0.610137          -0.710647          -0.583600           0.371391          -1.009851
hessian_block                8       8           5.369806          -0.159920          -1.040801          -0.159920           5.704063           1.418947          -1.040801           1.418947           7.169232
hessian_block                8       9           0.539535          -0.621482          -0.249624           0.383032           0.042971          -0.343351          -0.081474           0.508629           0.965071
hessian_block                8      10          -0.173370          -0.022500           0.386219          -0.799679          -0.413775           0.370090          -0.493029          -0.083332           0.673374
hessian_block                8      11           0.191363          -0.238561          -0.232430           0.647726           1.121006           0.630626           0.257163          -0.550175          -0.884419
hessian_block                8      12          -1.375502           1.250213           1.810151           0.897389          -1.573111          -2.123046           1.564031          -1.996633          -3.175206
hessian_block                9       9           5.182237          -0.395289          -0.820209          -0.395289           6.574960          -1.557164          -0.820209          -1.557164           7.500025
hessian_block                9      10          -0.217446           0.206587           0.214501          -0.331307          -0.305797          -0.088714          -0.422656          -0.225892           0.436207
hessian_block                9      11          -0.108383           0.924450          -0.320850          -0.684081           0.494191           0.772736           0.350177           0.230229          -0.921913
hessian_block                9      12          -0.138202          -0.497611           0.650079           0.263212          -0.119767          -0.593478           0.099953           0.749388          -0.951080
hessian_block               10      10           5.741535           0.737409           1.815245           0.737409           7.300429           2.559879           1.815245           2.559879           8.437770
hessian_block               10      11          -0.085654          -0.192935           0.276290           0.421635          -1.374561          -0.143165          -0.063903          -0.579132          -0.799935
hessian_block               10      12          -0.186653          -0.063883          -0.190202          -0.544798          -0.248816          -0.118306          -0.580312           0.002130          -0.516348
hessian_block               11      11           5.574055           0.245061           1.019316           0.245061           7.966441          -1.384515           1.019316          -1.384515           7.538360
hessian_block               11      12           0.058382          -0.006109          -0.251115           0.438693          -0.882785           0.584707           0.586094          -0.801295           0.557731
hessian_block               12      12           5.506935           0.034908          -1.172239           0.034908           5.714363           1.422222          -1.172239           1.422222           7.401258
hessian_block_lv             1       1          23.211403          -2.512895           4.764411          -2.512895          23.174130           2.788864           4.764411           2.788864           1.884980
hessian_block_lv_atom        1       1           0.290512           0.240402           0.048314          -0.662793          -0.182097          -0.203571          -0.425668           0.140816          -0.021086
hessian_block_lv_atom        1       2          -0.846114          -0.511808          -0.226488          -0.057275           0.141002           0.029669           0.141272          -0.296643          -0.027711
hessian_block_lv_atom        1       3          -0.924666          -0.485891          -0.256433           0.374517           0.431453           0.097477          -0.449970           0.004800          -0.045035
hessian_block_lv_atom        1       4          -0.004124           0.089870           0.003145           0.954605           0.682837           0.300385           0.218379          -0.113418           0.004726
hessian_block_lv_atom        1       5           0.347956           0.262782           0.385104          -0.189127           0.424170           0.268751          -2.607636          -2.176955          -1.511709
hessian_block_lv_atom        1       6           0.870354          -0.854808          -0.260180          -0.272807          -0.790609          -0.351699          -1.958367          -2.671094          -1.527710
hessian_block_lv_atom        1       7          -0.957263          -0.344958           0.071527          -0.792958          -1.087582          -0.558168           2.128260           1.864543           1.380521
hessian_block_lv_atom        1       8           0.405579          -0.118464          -0.305431           0.097348           0.112255           0.281478           1.951676           2.071281           1.409196
hessian_block_lv_atom        1       9           0.353029           0.096633          -0.223569          -0.236941          -0.882262          -0.406632           2.466213           2.122731           1.489045
hessian_block_lv_atom        1      10          -0.959138           0.839850           0.328578           0.412895           0.573768           0.429652           2.418209           2.912901           1.605183
hessian_block_lv_atom        1      11           1.115983           0.415319          -0.009088           0.310228           0.734488           0.365915          -2.410791          -1.996301          -1.457151
hessian_block_lv_atom        1      12           0.307891           0.371070           0.444518           0.062310          -0.157420          -0.253257          -1.471578          -1.862660          -1.298271
