# 
# This is the geometry file that corresponds to the current relaxation step.
# If you do not want this file to be written, set the "write_restart_geometry" flag to .false.
#  aims_uuid : DF50C119-A407-460C-AD51-0C169587FB3E                                
# 
lattice_vector      5.83787258      0.00000000      0.00000000
lattice_vector      0.00000000      5.95044564      0.00000000
lattice_vector      0.00000000      0.00000000      7.51808818
atom_frac       0.50114101      0.00041690      0.00028810 Pd
atom_frac       0.00041538      0.00047559      0.50137634 Pd
atom_frac       0.00052298      0.50113756      0.00031345 Pd
atom_frac       0.50125145      0.50119553      0.50135128 Pd
atom_frac       0.61287008      0.11862688      0.40370063 Se
atom_frac       0.89027880      0.88373726      0.90432628 Se
atom_frac       0.11215406      0.38305289      0.59876014 Se
atom_frac       0.38942889      0.61938163      0.09791292 Se
atom_frac       0.38949206      0.88375086      0.59876621 Se
atom_frac       0.11214831      0.11870317      0.09793809 Se
atom_frac       0.89021209      0.61929409      0.40371137 Se
atom_frac       0.61288141      0.38302416      0.90435174 Se
# 
# What follows is the current estimated Hessian matrix constructed by the BFGS algorithm.
# This is NOT the true Hessian matrix of the system.
# If you do not want this information here, switch it off using the "hessian_to_restart_geometry" keyword.
# 
trust_radius             0.0122099144
hessian_block                1       1           6.320175          -0.933354          -2.550887          -0.933354           8.802965          -0.235160          -2.550887          -0.235160           5.117800
hessian_block                1       2          -0.975907           2.846150           0.898719          -0.474991           2.450408           0.710274          -0.509165           1.367203           0.475025
hessian_block                1       3          -1.384723           4.005596           1.294127           0.015144          -0.440252          -0.031250          -0.984126           2.244446           0.807286
hessian_block                1       4           0.519564           0.224273          -0.059768           0.388033          -0.951375          -0.300988           0.045170           0.115544           0.036580
hessian_block                1       5           0.505987          -1.957766          -0.744130          -1.580630           3.221245           1.334196          -0.109675          -0.276440           0.042061
hessian_block                1       6          -0.118519          -4.065100          -0.821751           1.948145          -4.336420          -1.646164           3.944178          -7.246860          -3.010389
hessian_block                1       7          -1.108760           2.132133           0.855749           0.499508          -0.720541          -0.222156           0.043900           0.098126          -0.024523
hessian_block                1       8           0.362799          -2.128195          -0.252402          -0.026919          -2.778156           0.418892          -0.819355           2.989237           0.310412
hessian_block                1       9          -0.081154          -0.077436           0.151107           0.663033          -3.034052          -1.078374          -0.188365           0.219442           0.112154
hessian_block                1      10          -4.030163           5.258353           2.603480          -1.397277           3.594564           1.101826          -1.061214           4.450789           1.193068
hessian_block                1      11           1.140808          -3.163826          -1.104836           0.495414          -0.925737          -0.432943           0.221268          -0.215582           0.049842
hessian_block                1      12           0.415804          -2.140828          -0.269410           0.403894          -3.235623           0.381846           1.968272          -3.510747          -2.007452
hessian_block                2       2           8.339070           2.364595           3.555552           2.364595           8.712912           2.756817           3.555552           2.756817           5.607839
hessian_block                2       3           4.149766           3.584492           2.120359          -0.660315          -0.543786          -0.314981           2.191385           1.836246           1.160736
hessian_block                2       4           0.173671           0.514626           0.082947          -1.063757          -0.150412          -0.159325           0.152093           0.448332           0.190447
hessian_block                2       5          -3.478178          -1.048502          -1.623744           3.402016           2.198499           1.715298          -1.058833          -0.432890          -0.790980
hessian_block                2       6          -4.470852          -3.823553          -2.222499          -4.018212          -4.124877          -2.377464          -6.877406          -6.183616          -3.826352
hessian_block                2       7           1.793865           0.988706           0.726100          -1.390350          -2.593951          -1.400243          -0.219633          -0.976893          -0.470849
hessian_block                2       8          -1.680236          -1.732912          -0.984161          -0.711169          -0.910026          -0.523922           2.108478           1.939077           1.297134
hessian_block                2       9          -2.126711           0.260134          -1.028326          -1.990909          -3.223253          -1.265401          -0.779343           0.383007          -0.301166
hessian_block                2      10           4.737408           3.682328           2.373072           3.905787           3.842460           2.468271           4.745317           4.530969           2.773563
hessian_block                2      11          -3.133279          -3.070402          -1.712450          -1.293200          -3.286500          -1.647350          -0.545753          -1.269614          -0.794255
hessian_block                2      12          -1.762703          -1.244519          -0.777685          -1.390635          -0.724452          -0.618905          -4.170576          -3.741710          -2.219276
hessian_block                3       3          11.170311          -0.790119           5.246122          -0.790119           6.234809          -1.443100           5.246122          -1.443100           6.598848
hessian_block                3       4           0.236133          -0.224996          -0.085414          -1.246329           0.292702          -0.622074           0.277488          -0.113110           0.121473
hessian_block                3       5          -2.489940           0.195649          -1.492834           4.135624           0.005358           2.813374          -0.395013           0.116204          -0.125605
hessian_block                3       6          -6.495154           1.017545          -3.999512          -5.355869          -1.394837          -2.531191         -10.173824           1.534395          -6.486312
hessian_block                3       7           2.752667          -0.106825           1.809866          -1.250966           0.095321          -0.733328          -0.082943          -0.003770          -0.032628
hessian_block                3       8          -4.154565          -0.145620          -2.087243          -1.733906          -0.302526          -1.157230           2.214382          -0.483339           1.437700
hessian_block                3       9          -0.444165           0.378171           0.042371          -3.805601           0.153905          -2.344742           0.076414           0.189088           0.259738
hessian_block                3      10           6.561248           0.036690           3.871070           6.252622          -2.391872           4.295975           6.624523           0.249811           3.579647
hessian_block                3      11          -4.200006           0.421038          -2.457689          -1.380350           0.003031          -0.927838          -0.426788           0.109292          -0.201773
hessian_block                3      12          -4.135657          -0.136364          -2.053995          -2.415195          -0.064827          -1.430539          -6.774847           0.190759          -4.017247
hessian_block                4       4           5.890624           0.096568          -1.984791           0.096568           6.866507           1.424529          -1.984791           1.424529           4.866766
hessian_block                4       5          -0.405954           1.094358           0.191351           0.166532          -2.740614          -0.890168           0.005566          -1.139035          -0.635415
hessian_block                4       6          -0.037738           1.274425          -0.137513          -0.180166           0.577056          -0.421099           0.392451           1.470147          -0.406432
hessian_block                4       7          -1.954714          -1.265699           0.801830          -0.265904          -0.079141           0.199588           0.835840           0.059997          -0.477103
hessian_block                4       8          -0.186283           0.282656          -0.213134           0.115776          -0.136841          -0.091873          -0.180142          -0.402811           0.178105
hessian_block                4       9          -0.277037           0.664515           0.130022           0.086196          -1.709076          -1.161046           0.093669          -0.781936          -0.446643
hessian_block                4      10          -0.458085          -1.466910           0.065014          -0.314031          -0.433449           0.436691          -0.040302          -0.807392           0.444402
hessian_block                4      11          -1.859215           0.479473           0.715716          -0.600057          -0.563018          -0.033053           0.892199           0.179117          -0.542696
hessian_block                4      12          -0.075054           0.762666          -0.043246           0.381184           0.674684           0.085664           0.047744           1.079772          -0.227621
hessian_block                5       5           6.081943          -2.341261          -0.926788          -2.341261           9.701591          -1.625863          -0.926788          -1.625863           7.676991
hessian_block                5       6           2.813197          -5.195103           0.430883           2.461380          -4.992666           1.109973           4.146816          -8.973448           1.604479
hessian_block                5       7          -1.540262           3.291028          -0.401513          -0.200652          -0.896303           0.495110           0.236276           0.563483          -1.090643
hessian_block                5       8           0.918192          -1.830916           0.658866           0.902063          -1.214857          -0.370196          -1.011410           3.193335          -1.305969
hessian_block                5       9          -1.257615          -0.474091           1.706278           1.275027          -5.002320           2.726792           1.448654           2.685878          -3.516196
hessian_block                5      10          -2.771030           5.845715          -0.328831          -2.061950           5.026713          -1.034768          -2.542869           5.757278          -1.506594
hessian_block                5      11           2.166451          -4.039995           0.676171           1.192664          -1.556988          -0.016333          -0.327527          -0.808961           1.234321
hessian_block                5      12           1.023117          -1.378918          -0.257111           0.488993          -2.102634           0.447446           2.646204          -5.764402           1.515418
hessian_block                6       6          12.169701           6.789235          13.093887           6.789235          11.822748          12.474984          13.093887          12.474984          27.226458
hessian_block                6       7          -3.084659          -3.110214          -5.404478           1.847866           1.683117           3.299343          -0.062140          -0.258510          -0.701580
hessian_block                6       8           2.454534           2.728567           4.218012           1.618431           1.477123           2.670844          -3.727723          -3.854957          -7.112301
hessian_block                6       9           0.195996           0.279291           0.229190           4.617203           4.991377           7.769669          -0.475596          -0.807094          -1.758229
hessian_block                6      10          -9.060963          -8.132890         -14.788857          -7.537974          -7.939074         -13.358789          -9.810035          -9.673500         -16.789775
hessian_block                6      11           4.571303           4.554223           7.497314           1.213951           1.822662           2.539807           0.461583           1.005449           1.802585
hessian_block                6      12           2.629065           2.036509           3.722718           2.243075           2.060816           4.003523           7.270415           6.979573          12.559714
hessian_block                7       7           6.757240          -0.151711           1.216624          -0.151711           6.213041          -1.301767           1.216624          -1.301767           7.591599
hessian_block                7       8          -1.295197           0.576627          -0.230778          -0.658490           0.055093           0.645969           1.988536          -1.347503           1.042251
hessian_block                7       9           0.287192           0.574727          -0.189909          -2.563815           0.532476          -0.522180           0.672688          -0.451944           1.182859
hessian_block                7      10           3.609447          -2.157990           0.074753           3.186596          -1.985442           0.107156           3.315688          -2.612143           0.681843
hessian_block                7      11          -3.778437           1.426799          -1.884421          -0.263481          -1.535099           2.191099          -1.934174           2.309969          -3.485152
hessian_block                7      12          -0.872470           0.492045           0.262429          -1.478227           0.878453          -0.602709          -3.646917           1.765074          -1.114208
hessian_block                8       8           5.547822           0.498514          -2.398251           0.498514           5.807788           0.513734          -2.398251           0.513734           9.300027
hessian_block                8       9           0.303228          -0.449122          -0.253819           1.928266           1.132820          -2.781204          -0.329411           0.243869           1.381995
hessian_block                8      10          -2.603482          -1.742680           4.212566          -2.735866          -1.575098           4.065637          -3.084757          -1.585444           5.031793
hessian_block                8      11           1.936874           0.796011          -2.650363           0.768852           1.064932          -0.577138           0.629731          -0.457605          -1.417653
hessian_block                8      12          -0.037776           1.391492           0.517101           1.790027          -0.973228          -3.254067           4.073528          -0.307038          -7.041633
hessian_block                9       9           5.012907          -0.438975          -0.750179          -0.438975           9.253439          -1.951603          -0.750179          -1.951603           7.645815
hessian_block                9      10          -0.188134          -4.473182           0.610377          -0.373935          -4.408585           0.816548          -0.543503          -5.362303           1.337514
hessian_block                9      11          -0.072359           3.623431          -0.683351          -0.575392           1.754963           0.130541           0.416371           0.772151          -1.164879
hessian_block                9      12           0.213764           1.079326           0.304438           0.232111           1.205332          -0.675797           0.090396           5.198242          -1.631098
hessian_block               10      10          13.477921           7.351948           9.805010           7.351948          12.319881           9.181387           9.805010           9.181387          16.562610
hessian_block               10      11          -4.921124          -4.331101          -4.917629          -1.367022          -2.016961          -1.459572          -0.693375          -1.243810          -1.543496
hessian_block               10      12          -2.787132          -1.944816          -2.490227          -2.834362          -2.386116          -2.669880          -7.804280          -6.836125          -8.662711
hessian_block               11      11           8.243228           1.536820           1.497695           1.536820           6.840885          -1.175649           1.497695          -1.175649           7.627265
hessian_block               11      12           1.471666           0.271800          -0.191230           1.767530           0.044856           0.795243           5.023844           1.408428           1.537757
hessian_block               12      12           5.483286           0.811605           1.276217           0.811605           6.269765           3.538174           1.276217           3.538174          14.410223
hessian_block_lv             1       1          26.353045          -1.805991           6.549606          -1.805991          24.792737           3.427941           6.549606           3.427941           3.003703
hessian_block_lv_atom        1       1          -1.058022          -0.479699          -0.709743           2.662382           1.726006           1.855179           1.256187           0.772835           0.753658
hessian_block_lv_atom        1       2           2.649509           1.407285           1.756085           3.450673           1.935444           1.768813           1.853883           0.844333           0.966289
hessian_block_lv_atom        1       3           3.963998           2.159064           2.534131          -0.404460           0.115240          -0.155546           2.779524           1.566996           1.672817
hessian_block_lv_atom        1       4           0.117986           0.068511          -0.017584           0.328875           0.270250          -0.248915           0.359891           0.099341           0.065541
hessian_block_lv_atom        1       5          -1.872656          -1.008804          -0.849129           3.574307           2.616940           2.630911          -2.305669          -2.922101          -1.669165
hessian_block_lv_atom        1       6          -4.479503          -3.431966          -3.383858          -5.164183          -3.571355          -3.336128          -9.913446          -7.901424          -6.493625
hessian_block_lv_atom        1       7           1.769767           0.930940           1.642234          -1.403579          -1.459322          -1.116057           0.999559           2.318659           1.276437
hessian_block_lv_atom        1       8          -1.956106          -1.005942          -1.413771          -1.284457          -0.689175          -0.443767           4.289977           4.245147           3.028650
hessian_block_lv_atom        1       9           0.171581           0.246208          -0.251319          -4.095367          -2.996553          -2.539512           1.746937           2.843186           1.576378
hessian_block_lv_atom        1      10           4.740101           3.474295           3.599402           5.366009           3.318079           3.302260           7.390307           6.399431           4.884061
hessian_block_lv_atom        1      11          -2.827349          -1.633074          -2.275085          -1.836575          -0.340197          -0.469600          -1.983939          -2.676207          -1.635637
hessian_block_lv_atom        1      12          -1.219308          -0.726821          -0.631365          -1.193625          -0.925355          -1.247639          -6.473212          -5.590196          -4.425405
symmetry_n_params 39 3 36
symmetry_params a1 b2 c3 x0 x1 x2 x3 x4 x5 x6 x7 x8 x9 x10 x11 x12 x13 x14 x15 x16 x17 x18 x19 x20 x21 x22 x23 x24 x25 x26 x27 x28 x29 x30 x31 x32 x33 x34 x35
symmetry_lv a1 , 0 , 0 
symmetry_lv 0 , b2 , 0 
symmetry_lv 0 , 0 , c3
symmetry_frac x0 , x1 , x2
symmetry_frac x3 , x4 , x5
symmetry_frac x6 , x7 , x8
symmetry_frac x9 , x10 , x11
symmetry_frac x12 , x13 , x14
symmetry_frac x15 , x16 , x17
symmetry_frac x18 , x19 , x20
symmetry_frac x21 , x22 , x23
symmetry_frac x24 , x25 , x26
symmetry_frac x27 , x28 , x29
symmetry_frac x30 , x31 , x32
symmetry_frac x33 , x34 , x35
