# 
# This is the geometry file that corresponds to the current relaxation step.
# If you do not want this file to be written, set the "write_restart_geometry" flag to .false.
#  aims_uuid : 0AF79AE8-F966-4215-A252-8DBC0901FF31                                
# 
lattice_vector      5.85490574      0.00000000      0.00000000
lattice_vector      0.00000000      5.95929968      0.00000000
lattice_vector      0.00000000      0.00000000      7.43158038
atom_frac       0.50241327      0.00206790      0.00190627 Pd
atom_frac       0.00205527      0.00208249      0.50265975 Pd
atom_frac       0.00214267      0.50243885      0.00195554 Pd
atom_frac       0.50249990      0.50245319      0.50260999 Pd
atom_frac       0.61428000      0.12006558      0.40431785 Se
atom_frac       0.89103651      0.88488490      0.90452494 Se
atom_frac       0.11390469      0.38453393      0.60074140 Se
atom_frac       0.39061989      0.62040731      0.10024268 Se
atom_frac       0.39066450      0.88490015      0.60074227 Se
atom_frac       0.11394011      0.12007223      0.10026143 Se
atom_frac       0.89100818      0.62040032      0.40432025 Se
atom_frac       0.61426015      0.38451830      0.90454278 Se
# 
# What follows is the current estimated Hessian matrix constructed by the BFGS algorithm.
# This is NOT the true Hessian matrix of the system.
# If you do not want this information here, switch it off using the "hessian_to_restart_geometry" keyword.
# 
trust_radius             0.0122098479
hessian_block                1       1           5.962725           0.050196          -2.198286           0.050196           6.515784          -1.043317          -2.198286          -1.043317           4.799765
hessian_block                1       2          -0.046906           0.548600           0.055534           0.309382           0.176722          -0.128726          -0.032974          -0.078566          -0.035215
hessian_block                1       3          -0.077103           0.573644           0.051531          -0.056128          -0.113342           0.104478          -0.177511           0.171940           0.038516
hessian_block                1       4           0.504922           0.185309          -0.081540           0.121418          -0.591094          -0.191435           0.075078          -0.086546          -0.027891
hessian_block                1       5          -0.037778          -0.439920          -0.187387          -0.336949           0.427206           0.354508          -0.280444           0.376699           0.297915
hessian_block                1       6          -1.776210          -0.136034           0.590863           0.432365          -0.450857          -0.273750           1.256828          -0.226106          -0.458952
hessian_block                1       7          -0.372326           0.401687           0.270592           0.074063           0.173805           0.093741           0.172853          -0.050814          -0.075228
hessian_block                1       8          -0.205759          -0.509492           0.329283          -0.319712          -1.893111           0.749090           0.116454           0.715899          -0.540834
hessian_block                1       9          -0.125199          -0.007622           0.176267          -0.422640          -0.465349          -0.159900           0.052506          -0.287714          -0.082113
hessian_block                1      10          -2.295445           0.911334           1.058813           0.061061          -0.463587          -0.352161           0.735490          -0.483416          -0.598161
hessian_block                1      11           0.079987          -0.690570          -0.238307           0.259421           0.303911           0.037562           0.030477           0.433524           0.287115
hessian_block                1      12          -0.044995          -0.887133           0.172636          -0.172478          -1.973065           0.809912           0.249527           0.558416          -0.503052
hessian_block                2       2           6.109759           0.301248           2.289530           0.301248           7.272413           1.916542           2.289530           1.916542           5.114869
hessian_block                2       3           0.910848           0.820402           0.445006          -0.418422          -0.525715          -0.331755           0.204265           0.103902           0.117517
hessian_block                2       4           0.192492           0.636236           0.182634          -0.577855           0.673707           0.410882           0.011239           0.493468           0.224252
hessian_block                2       5          -2.078090           0.036823          -0.983475           0.537897          -0.725983          -0.159274          -0.496833          -0.107026          -0.651998
hessian_block                2       6          -0.559368          -0.041555           0.126820          -0.290972          -0.891974          -0.377894          -0.167353          -0.365255          -0.330285
hessian_block                2       7           0.035879          -0.735228          -0.400955          -0.430511          -1.533956          -0.724414          -0.486848          -1.514901          -0.815586
hessian_block                2       8          -0.224779          -0.592190          -0.322857           0.072219          -0.402384          -0.238283          -0.169009          -0.257124          -0.027930
hessian_block                2       9          -2.052545           0.405662          -0.939596           0.589994          -0.815344           0.260955          -1.344207          -0.307945          -0.712733
hessian_block                2      10           0.508616          -0.179879          -0.009785           0.172601           0.961357           0.751811           0.124954           0.737764           0.540445
hessian_block                2      11          -0.644647          -0.638639          -0.150286          -0.415742          -3.255265          -1.734730           0.053278          -0.823939          -0.556974
hessian_block                2      12          -0.585347          -0.322262          -0.204063          -0.089057           0.713443           0.304726          -0.074546           0.253241           0.235502
hessian_block                3       3           6.592737          -0.543393           2.424359          -0.543393           6.304423          -1.265302           2.424359          -1.265302           4.857636
hessian_block                3       4           0.330264          -0.284899          -0.043485          -0.336133           0.065853          -0.105714           0.156459          -0.172397           0.036876
hessian_block                3       5          -0.584729           0.137877          -0.298435          -0.178983           0.496631           0.229205           0.295116           0.121020           0.315318
hessian_block                3       6          -0.758121           0.444271          -0.524053          -0.042312          -1.745107           0.702539          -0.702842           0.867296          -0.684895
hessian_block                3       7           0.114117           0.155442           0.226184           0.226190          -0.139816           0.127218          -0.592142           0.209206          -0.309510
hessian_block                3       8          -2.169556          -0.197160          -0.852955          -0.713065          -0.274336          -0.504854          -1.090771          -0.138760          -0.582851
hessian_block                3       9          -0.296998           0.344188           0.122859          -0.024211          -0.188865          -0.055922          -0.792637           0.379154          -0.251458
hessian_block                3      10           0.478257           0.551347           0.173411           1.133339          -2.208820           1.139613           0.218997           0.606572          -0.357429
hessian_block                3      11          -0.476330           0.068533          -0.207944          -0.514494           0.311090          -0.300636           0.364259           0.060331           0.285553
hessian_block                3      12          -2.497476          -0.201656          -1.046698          -0.400982          -0.334973          -0.241988          -0.777335          -0.439844          -0.363408
hessian_block                4       4           5.944665           0.190371          -1.948012           0.190371           7.072024           1.599694          -1.948012           1.599694           4.923547
hessian_block                4       5          -0.485542           0.615237           0.203373           0.091523          -2.353010          -1.182370          -0.034639          -1.443056          -0.680910
hessian_block                4       6          -0.022252           0.534049           0.173441          -0.240999          -0.420028          -0.259257           0.252452          -0.379255          -0.123035
hessian_block                4       7          -2.015105          -0.984265           0.656996          -0.208501          -0.158547           0.333873           0.740871          -0.101539          -0.596903
hessian_block                4       8          -0.281230          -0.236509          -0.192617           0.045455          -0.473543          -0.124823          -0.199692           0.023736           0.010962
hessian_block                4       9          -0.265852           0.699280           0.166391           0.117907          -2.219457          -0.992083           0.046590          -0.769419          -0.541639
hessian_block                4      10          -0.420878          -0.464539          -0.192392          -0.135647           0.894496           0.402473           0.108300           0.659108           0.330817
hessian_block                4      11          -1.802979           0.065523           0.916617          -0.833437          -1.403129          -0.275211           0.887637          -0.059976          -0.553332
hessian_block                4      12          -0.112594           0.373423          -0.026575           0.436681           0.559753           0.263183           0.088885           0.356975           0.099121
hessian_block                5       5           5.342225          -0.386200          -1.196275          -0.386200           6.364094          -0.863040          -1.196275          -0.863040           7.756469
hessian_block                5       6           0.266178          -0.481903          -0.454395           0.206263          -0.224784           0.374813           0.101640          -0.424891           0.499989
hessian_block                5       7          -0.374478           1.159615           0.096869          -0.929573           0.060418           0.342664           0.561537           0.546229          -1.067824
hessian_block                5       8           0.131184           0.207019           0.435974           0.527643          -0.058234          -0.512342           0.471507           0.503854          -0.850203
hessian_block                5       9          -1.349321          -0.419127           1.680328          -0.399049          -1.883067           2.091682           1.903614           2.213933          -3.491531
hessian_block                5      10          -0.143217           0.565530           0.487679           0.017599          -0.048360          -0.499683           0.133672          -0.250391          -0.901334
hessian_block                5      11           0.514264          -0.986799          -0.048302           1.057845           0.228222           0.000711          -0.661103          -0.071411           1.284895
hessian_block                5      12           0.365214           0.228376          -0.485079          -0.444546          -0.636105           0.117558          -0.048668          -0.896352           0.591078
hessian_block                6       6           5.753574           0.419518           1.809624           0.419518           5.809515           1.850071           1.809624           1.850071           8.665437
hessian_block                6       7          -0.072954          -0.135773          -0.014354           0.488667           0.189257           0.750417           0.046654           0.131395          -0.172033
hessian_block                6       8          -0.130546           0.379925           0.171052           0.117229           0.239598           0.406655          -0.053494          -0.242967          -0.746193
hessian_block                6       9           0.102078           0.116787          -0.006932           0.284259           0.806765           0.183701           0.170743           0.002572          -0.505809
hessian_block                6      10          -2.004727          -1.314875          -2.814612          -0.998039          -2.053596          -3.073476          -2.017731          -2.464539          -4.374233
hessian_block                6      11           0.282408           0.338731          -0.168214          -0.816344           0.543326           0.243508          -0.436772           0.182039           0.546300
hessian_block                6      12           0.485848           0.131342           0.282710           0.185880          -0.155090           0.167336           0.568298           0.374976           0.785578
hessian_block                7       7           5.473782           0.531018           1.113388           0.531018           6.099812          -1.516020           1.113388          -1.516020           7.964336
hessian_block                7       8          -0.019522          -0.115551           0.038286           0.006623          -0.418112           0.922815           0.272655          -0.622593           1.039401
hessian_block                7       9           0.354860           0.595414          -0.249120          -0.638913          -0.421453          -0.342693           0.278915          -0.510727           1.454227
hessian_block                7      10           0.274422          -0.582871          -0.165022           0.040823          -0.330621          -0.514456          -0.481631          -0.840911           0.257994
hessian_block                7      11          -1.914665           0.437257          -1.685985           0.689237          -2.404371           2.952580          -1.454683           2.189799          -3.542363
hessian_block                7      12           0.081900          -0.085605           0.505526          -0.490269           0.530609          -0.721806          -0.563977           0.376954          -1.034646
hessian_block                8       8           4.753451           0.094234          -0.930726           0.094234           5.644655           1.403528          -0.930726           1.403528           7.190997
hessian_block                8       9           0.232664          -0.517064          -0.211919           0.165568           0.187927          -0.273679           0.050606           0.569750           1.063665
hessian_block                8      10           0.069179          -0.238545           0.229822          -0.617151          -0.517891           0.376325          -0.423802          -0.112079           0.689983
hessian_block                8      11           0.161501          -0.138679          -0.166901           0.589583           1.172725           0.632173           0.329068          -0.657572          -0.972915
hessian_block                8      12          -0.750678           1.063662           1.732075           0.831725          -1.560271          -2.120391           1.368683          -1.901883          -3.172215
hessian_block                9       9           5.034631          -0.532107          -0.790487          -0.532107           6.459002          -1.408044          -0.790487          -1.408044           7.823896
hessian_block                9      10          -0.050932           0.274975          -0.149735          -0.177435          -0.096184          -0.105908          -0.354038          -0.109540           0.490033
hessian_block                9      11          -0.154636           0.858371          -0.093327          -0.739933           0.508160           0.798217           0.396486           0.128706          -1.181973
hessian_block                9      12           0.137159          -0.274155           0.667419           0.231957          -0.225110          -0.573871           0.009760           0.676816          -0.962697
hessian_block               10      10           5.863505           0.552592           1.669375           0.552592           6.909330           2.422978           1.669375           2.422978           8.381465
hessian_block               10      11          -0.168823           0.086625           0.476763           0.403008          -1.420513          -0.217861           0.179678          -0.529897          -0.796145
hessian_block               10      12          -0.544047          -0.136366          -0.190351          -0.478077           0.021410           0.052312          -0.467234          -0.017617          -0.561573
hessian_block               11      11           5.575522           0.239360           0.777843           0.239360           8.026973          -1.344680           0.777843          -1.344680           7.675315
hessian_block               11      12           0.114309           0.081494          -0.466169           0.360285          -0.964104           0.493076           0.588040          -0.791633           0.626389
hessian_block               12      12           4.916617           0.028880          -0.941435           0.028880           5.670528           1.449952          -0.941435           1.449952           7.361788
hessian_block_lv             1       1          23.571757          -3.358379           4.961493          -3.358379          24.047302           2.555586           4.961493           2.555586           1.906544
hessian_block_lv_atom        1       1           0.269086           0.402803           0.072695          -0.508128          -0.730111          -0.204278          -0.070105          -0.247807           0.019662
hessian_block_lv_atom        1       2          -0.613062          -1.005951          -0.252211           0.195261          -0.209216           0.008865           0.045777          -0.273015          -0.091880
hessian_block_lv_atom        1       3          -0.645092          -1.094295          -0.276074           0.248490           0.482978           0.113930          -0.092309          -0.482282          -0.038754
hessian_block_lv_atom        1       4           0.117433           0.113495           0.005764           0.885102           0.919320           0.304438           0.103586           0.013633          -0.020498
hessian_block_lv_atom        1       5           0.280210           0.448744           0.359612           0.081642          -0.070239           0.237618          -1.970179          -2.907756          -1.508664
hessian_block_lv_atom        1       6           0.155958          -0.016711          -0.265020          -0.503806          -0.282922          -0.337227          -1.959976          -2.554118          -1.436832
hessian_block_lv_atom        1       7          -0.618037          -0.888518           0.088214          -0.756646          -1.030366          -0.533409           1.467892           2.629592           1.358233
hessian_block_lv_atom        1       8          -0.084699           0.191893          -0.247338           0.106522           0.272656           0.273042           1.638463           2.352950           1.364985
hessian_block_lv_atom        1       9           0.142146           0.248560          -0.189491          -0.619395          -0.413235          -0.384024           1.801618           2.927833           1.450471
hessian_block_lv_atom        1      10          -0.222985           0.026550           0.311319           0.619534           0.240559           0.383719           2.173451           3.089671           1.576573
hessian_block_lv_atom        1      11           0.696275           1.092594          -0.009946           0.212807           0.805848           0.366441          -1.712533          -2.684805          -1.458812
hessian_block_lv_atom        1      12           0.522767           0.480839           0.402477           0.038614           0.014725          -0.229115          -1.425683          -1.863896          -1.214483
symmetry_n_params 39 3 36
symmetry_params a1 b2 c3 x0 x1 x2 x3 x4 x5 x6 x7 x8 x9 x10 x11 x12 x13 x14 x15 x16 x17 x18 x19 x20 x21 x22 x23 x24 x25 x26 x27 x28 x29 x30 x31 x32 x33 x34 x35
symmetry_lv a1 , 0 , 0 
symmetry_lv 0 , b2 , 0 
symmetry_lv 0 , 0 , c3
symmetry_frac x0 , x1 , x2
symmetry_frac x3 , x4 , x5
symmetry_frac x6 , x7 , x8
symmetry_frac x9 , x10 , x11
symmetry_frac x12 , x13 , x14
symmetry_frac x15 , x16 , x17
symmetry_frac x18 , x19 , x20
symmetry_frac x21 , x22 , x23
symmetry_frac x24 , x25 , x26
symmetry_frac x27 , x28 , x29
symmetry_frac x30 , x31 , x32
symmetry_frac x33 , x34 , x35
