# 
# This is the geometry file that corresponds to the current relaxation step.
# If you do not want this file to be written, set the "write_restart_geometry" flag to .false.
#  aims_uuid : DD5E533F-4F26-44C5-A873-FF52B6DC259C                                
# 
lattice_vector      5.84439154      0.00000000      0.00000000
lattice_vector      0.00000000      5.95419582      0.00000000
lattice_vector      0.00000000      0.00000000      7.51037997
atom_frac       0.50231482      0.00241489      0.00214502 Pd
atom_frac       0.00233107      0.00236553      0.50265683 Pd
atom_frac       0.00251296      0.50238246      0.00215234 Pd
atom_frac       0.50244837      0.50238764      0.50263453 Pd
atom_frac       0.61450674      0.12078219      0.40570489 Se
atom_frac       0.89025465      0.88400345      0.90553303 Se
atom_frac       0.11451022      0.38405197      0.59928517 Se
atom_frac       0.39035538      0.62078065      0.09908446 Se
atom_frac       0.39033806      0.88408555      0.59929435 Se
atom_frac       0.11448089      0.12076213      0.09909407 Se
atom_frac       0.89028357      0.62076436      0.40570682 Se
atom_frac       0.61448840      0.38404432      0.90553364 Se
# 
# What follows is the current estimated Hessian matrix constructed by the BFGS algorithm.
# This is NOT the true Hessian matrix of the system.
# If you do not want this information here, switch it off using the "hessian_to_restart_geometry" keyword.
# 
trust_radius             0.0976787832
hessian_block                1       1           5.977713           0.017403          -2.157872           0.017403           6.576812          -1.235911          -2.157872          -1.235911           4.669277
hessian_block                1       2          -0.056356           0.518007          -0.092036           0.298544           0.143234          -0.210889          -0.069395           0.032854           0.004714
hessian_block                1       3          -0.101902           0.574383          -0.134149          -0.068658          -0.047065           0.101426          -0.154914           0.020929          -0.107218
hessian_block                1       4           0.531140           0.081289          -0.061240           0.123474          -0.590197          -0.095441           0.050976           0.004201           0.024678
hessian_block                1       5          -0.048717          -0.416528          -0.088364          -0.357587           0.394671           0.218187          -0.253899           0.171448           0.073373
hessian_block                1       6          -1.809118           0.151631           0.833021           0.489130          -0.528257          -0.128293           1.260734          -0.205967          -0.459127
hessian_block                1       7          -0.384340           0.322335           0.109644           0.108049           0.090853           0.102177           0.159656           0.128459           0.151025
hessian_block                1       8          -0.253353          -0.219070           0.333750          -0.307193          -1.956120           0.822667           0.125058           0.742601          -0.432604
hessian_block                1       9          -0.133507           0.091816           0.173150          -0.421898          -0.345361          -0.058152           0.036673          -0.105192           0.174959
hessian_block                1      10          -2.256003           0.595447           0.835503           0.005151          -0.389020          -0.418066           0.713998          -0.388266          -0.542378
hessian_block                1      11           0.093231          -0.594575          -0.046954           0.255769           0.325809           0.045253           0.070415           0.174275           0.093946
hessian_block                1      12           0.007126          -1.122141           0.295546          -0.142185          -2.028336           0.857043           0.218568           0.660567          -0.548780
hessian_block                2       2           6.054423           0.276639           2.380922           0.276639           7.307555           2.002074           2.380922           2.002074           5.146929
hessian_block                2       3           0.862891           0.818314           0.575647          -0.394597          -0.532792          -0.339617           0.082552           0.055302           0.191431
hessian_block                2       4           0.147593           0.632720           0.168426          -0.539327           0.734610           0.382673           0.086288           0.549461           0.225845
hessian_block                2       5          -2.006020           0.131204          -0.983273           0.507487          -0.681857          -0.026294          -0.649069          -0.197651          -0.532409
hessian_block                2       6          -0.364775          -0.022612          -0.044441          -0.322373          -0.999955          -0.555262          -0.158971          -0.420656          -0.361257
hessian_block                2       7          -0.024672          -0.697799          -0.254627          -0.492735          -1.608910          -0.782931          -0.352262          -1.472900          -0.964292
hessian_block                2       8          -0.117494          -0.665861          -0.391159           0.082399          -0.346328          -0.246945          -0.140474          -0.241737          -0.104749
hessian_block                2       9          -2.035351           0.340763          -0.991639           0.645312          -0.879042           0.135503          -1.192061          -0.232688          -0.860886
hessian_block                2      10           0.309455          -0.189336           0.156487           0.239333           1.122077           0.910931           0.177230           0.806240           0.529714
hessian_block                2      11          -0.571154          -0.676854          -0.321166          -0.397873          -3.261713          -1.741060          -0.112963          -0.899604          -0.448287
hessian_block                2      12          -0.632629          -0.245723          -0.225782          -0.122271           0.650143           0.228076          -0.029152           0.263047           0.275112
hessian_block                3       3           6.577522          -0.506892           2.285866          -0.506892           6.330656          -1.265428           2.285866          -1.265428           4.717376
hessian_block                3       4           0.264598          -0.317632          -0.038645          -0.285568           0.031218          -0.009951           0.255711          -0.177162           0.106756
hessian_block                3       5          -0.491890           0.089953          -0.179842          -0.174492           0.495011           0.147409           0.092236           0.113302           0.102202
hessian_block                3       6          -0.553002           0.479030          -0.317437          -0.159450          -1.761322           0.756364          -0.721526           0.882720          -0.699105
hessian_block                3       7           0.086245           0.148907           0.121434           0.119768          -0.139220           0.093138          -0.439669           0.217900          -0.116253
hessian_block                3       8          -2.044764          -0.084340          -0.860100          -0.703737          -0.327205          -0.429369          -1.060632          -0.145920          -0.500066
hessian_block                3       9          -0.285701           0.400859           0.097457           0.008084          -0.148087          -0.001613          -0.613024           0.372921          -0.021888
hessian_block                3      10           0.262763           0.500236          -0.018083           1.290101          -2.227774           1.165494           0.323642           0.619982          -0.288353
hessian_block                3      11          -0.435610           0.076840          -0.079611          -0.501136           0.313688          -0.292294           0.140405           0.026734           0.097077
hessian_block                3      12          -2.575241          -0.323705          -0.938678          -0.479373          -0.340086          -0.239982          -0.704507          -0.406859          -0.380094
hessian_block                4       4           5.998316           0.240891          -1.955962           0.240891           7.086237           1.564315          -1.955962           1.564315           4.909197
hessian_block                4       5          -0.434090           0.625285           0.175508           0.072376          -2.274650          -1.096130          -0.044738          -1.348745          -0.573838
hessian_block                4       6          -0.065714           0.321522           0.039422          -0.186950          -0.485396          -0.362558           0.229565          -0.435116          -0.141069
hessian_block                4       7          -2.021937          -0.873983           0.753749          -0.189534          -0.157917           0.312015           0.748903          -0.221233          -0.715097
hessian_block                4       8          -0.434182          -0.437776          -0.226774           0.116763          -0.427636          -0.147162          -0.170704           0.002259          -0.044602
hessian_block                4       9          -0.331685           0.613061           0.146132           0.079124          -2.347894          -1.068277           0.073115          -0.878226          -0.666966
hessian_block                4      10          -0.355831          -0.237926          -0.063577          -0.146716           0.968245           0.479988           0.102988           0.657430           0.313907
hessian_block                4      11          -1.792886          -0.059449           0.801301          -0.841692          -1.427132          -0.282610           0.917366           0.065671          -0.456846
hessian_block                4      12           0.060590           0.509796          -0.062775           0.459361           0.537539           0.223922           0.030928           0.316366           0.119900
hessian_block                5       5           5.342016          -0.277150          -1.075943          -0.277150           6.408842          -1.024648          -1.075943          -1.024648           7.509906
hessian_block                5       6           0.011950          -0.407511          -0.085147           0.099169          -0.369842           0.533590          -0.007777          -0.523938           0.494615
hessian_block                5       7          -0.247277           1.178794          -0.136390          -0.938231          -0.040792           0.328998           0.409190           0.639453          -0.794766
hessian_block                5       8          -0.097541           0.163528           0.522918           0.563313          -0.007331          -0.457329           0.446997           0.544425          -0.741756
hessian_block                5       9          -1.444867          -0.475046           1.700686          -0.556872          -1.936539           2.244011           1.768699           2.352886          -3.181536
hessian_block                5      10           0.132675           0.502377           0.144684           0.144947           0.169358          -0.547049           0.153760          -0.122242          -0.856355
hessian_block                5      11           0.357305          -1.008115           0.205985           1.013051           0.208909           0.013746          -0.507134          -0.220420           1.056074
hessian_block                5      12           0.492367           0.275339          -0.421324          -0.478143          -0.718752           0.170326          -0.111819          -0.888687           0.546353
hessian_block                6       6           5.515227           0.419448           1.938955           0.419448           6.132775           1.993891           1.938955           1.993891           8.676385
hessian_block                6       7           0.038333          -0.261090          -0.152549           0.581488           0.358512           0.826577          -0.245309           0.091484          -0.111201
hessian_block                6       8           0.057730           0.408852           0.357576          -0.067280           0.212473           0.313328          -0.209588          -0.250062          -0.711997
hessian_block                6       9           0.231467           0.184296           0.117862           0.301281           0.933879           0.332497          -0.214811          -0.087870          -0.471312
hessian_block                6      10          -1.814052          -1.312254          -2.949433          -1.184149          -2.430619          -3.246215          -2.197951          -2.653301          -4.382213
hessian_block                6      11           0.146162           0.477268          -0.030623          -0.795305           0.573878           0.232893          -0.143382           0.347244           0.515338
hessian_block                6      12           0.171700           0.163955           0.116186           0.222456           0.010900           0.249989           0.646666           0.314772           0.752811
hessian_block                7       7           5.459726           0.432409           1.264985           0.432409           6.163511          -1.454535           1.264985          -1.454535           7.714633
hessian_block                7       8          -0.086578          -0.077998           0.026143           0.076320          -0.409083           0.843162           0.356198          -0.597690           0.932583
hessian_block                7       9           0.294051           0.627649          -0.222794          -0.680749          -0.331299          -0.414291           0.490051          -0.462672           1.150557
hessian_block                7      10           0.182643          -0.673830           0.100340           0.265275          -0.503487          -0.597011          -0.304262          -0.904523           0.150509
hessian_block                7      11          -1.898491           0.554199          -1.854254           0.655089          -2.381210           2.955368          -1.660822           2.182402          -3.295716
hessian_block                7      12           0.168206          -0.051236           0.405067          -0.565511           0.606068          -0.715859          -0.587412           0.357045          -1.000118
hessian_block                8       8           5.313909          -0.157336          -1.021142          -0.157336           5.717637           1.416767          -1.021142           1.416767           7.150615
hessian_block                8       9           0.505307          -0.621490          -0.245335           0.395637           0.064776          -0.337210          -0.055349           0.515901           0.942651
hessian_block                8      10          -0.195835          -0.024393           0.381014          -0.827668          -0.444960           0.346954          -0.512392          -0.091711           0.634795
hessian_block                8      11           0.236489          -0.224011          -0.251003           0.645366           1.135132           0.638986           0.283570          -0.551742          -0.856427
hessian_block                8      12          -1.317779           1.266645           1.789612           0.856666          -1.564329          -2.119372           1.542954          -1.987565          -3.166576
hessian_block                9       9           5.166805          -0.395549          -0.811128          -0.395549           6.583212          -1.547438          -0.811128          -1.547438           7.474190
hessian_block                9      10          -0.217384           0.222508           0.215277          -0.330181          -0.341049          -0.130059          -0.417079          -0.244804           0.385138
hessian_block                9      11          -0.079234           0.905954          -0.328257          -0.699604           0.546131           0.792369           0.357792           0.225352          -0.885158
hessian_block                9      12          -0.103991          -0.502832           0.630815           0.263427          -0.151702          -0.589934           0.094894           0.734420          -0.937881
hessian_block               10      10           5.728846           0.749827           1.833030           0.749827           7.349867           2.578066           1.833030           2.578066           8.407867
hessian_block               10      11          -0.054723          -0.166226           0.296870           0.380850          -1.462133          -0.215397          -0.072563          -0.557788          -0.754579
hessian_block               10      12          -0.156646          -0.039693          -0.169835          -0.513508          -0.163484          -0.041476          -0.562679           0.014756          -0.496191
hessian_block               11      11           5.556121           0.268476           1.002947           0.268476           8.017315          -1.341032           1.002947          -1.341032           7.492812
hessian_block               11      12           0.008702           0.017007          -0.275631           0.446491          -0.941649           0.548906           0.604762          -0.806221           0.543632
hessian_block               12      12           5.443505           0.052588          -1.143205           0.052588           5.750715           1.428360          -1.143205           1.428360           7.393697
hessian_block_lv             1       1          23.078763          -2.541748           4.750356          -2.541748          23.063087           2.750020           4.750356           2.750020           1.864412
hessian_block_lv_atom        1       1           0.298875           0.274832           0.062895          -0.676921          -0.220094          -0.226298          -0.437248           0.151655          -0.012862
hessian_block_lv_atom        1       2          -0.861664          -0.537055          -0.235833           0.001242           0.123884           0.038975           0.159377          -0.315298          -0.029599
hessian_block_lv_atom        1       3          -0.904716          -0.513476          -0.264035           0.355153           0.418512           0.084820          -0.456484          -0.001177          -0.042241
hessian_block_lv_atom        1       4           0.017953           0.109561           0.014746           0.996870           0.686269           0.317782           0.237991          -0.114484           0.008774
hessian_block_lv_atom        1       5           0.342825           0.241969           0.372761          -0.216130           0.426310           0.247758          -2.611530          -2.144799          -1.499335
hessian_block_lv_atom        1       6           0.884039          -0.907896          -0.265049          -0.314079          -0.803461          -0.349434          -1.960741          -2.662486          -1.513216
hessian_block_lv_atom        1       7          -1.003672          -0.328205           0.067437          -0.778378          -1.095277          -0.542352           2.075057           1.844434           1.353469
hessian_block_lv_atom        1       8           0.384393          -0.097102          -0.297456           0.069235           0.141499           0.276735           1.888263           2.009363           1.378147
hessian_block_lv_atom        1       9           0.356557           0.114558          -0.211871          -0.238260          -0.877276          -0.402051           2.438775           2.090155           1.462315
hessian_block_lv_atom        1      10          -0.973400           0.902980           0.334235           0.493741           0.607562           0.441183           2.445299           2.914978           1.599399
hessian_block_lv_atom        1      11           1.158474           0.407842          -0.006331           0.222681           0.751074           0.339632          -2.384140          -1.966797          -1.438624
hessian_block_lv_atom        1      12           0.300335           0.331995           0.428503           0.084844          -0.159004          -0.226750          -1.394618          -1.805542          -1.266226
