# 
# This is the geometry file that corresponds to the current relaxation step.
# If you do not want this file to be written, set the "write_restart_geometry" flag to .false.
#  aims_uuid : 4E16180F-51CA-48EB-A32D-9806EC87BD59                                
# 
lattice_vector      5.83781323      0.00000000      0.00000000
lattice_vector      0.00000000      5.95036595      0.00000000
lattice_vector      0.00000000      0.00000000      7.51811129
atom_frac       0.50114757      0.00041559      0.00029308 Pd
atom_frac       0.00041459      0.00047552      0.50137662 Pd
atom_frac       0.00052046      0.50114358      0.00031740 Pd
atom_frac       0.50125597      0.50120275      0.50135280 Pd
atom_frac       0.61288104      0.11862511      0.40369913 Se
atom_frac       0.89028782      0.88374708      0.90433826 Se
atom_frac       0.11215863      0.38305744      0.59876707 Se
atom_frac       0.38943086      0.61938990      0.09791814 Se
atom_frac       0.38949291      0.88375900      0.59877171 Se
atom_frac       0.11215022      0.11870384      0.09794402 Se
atom_frac       0.89021925      0.61930065      0.40371029 Se
atom_frac       0.61289187      0.38303074      0.90436267 Se
# 
# What follows is the current estimated Hessian matrix constructed by the BFGS algorithm.
# This is NOT the true Hessian matrix of the system.
# If you do not want this information here, switch it off using the "hessian_to_restart_geometry" keyword.
# 
trust_radius             0.0122098479
hessian_block                1       1           6.336796          -0.970457          -2.554086          -0.970457           8.935149          -0.212608          -2.554086          -0.212608           5.118070
hessian_block                1       2          -1.014159           2.968617           0.918501          -0.482037           2.505505           0.724933          -0.521307           1.411247           0.485672
hessian_block                1       3          -1.425351           4.151631           1.317746           0.016176          -0.448005          -0.031476          -1.004510           2.333644           0.821747
hessian_block                1       4           0.524432           0.223693          -0.057425           0.417484          -1.034409          -0.309485           0.053466           0.087966           0.031950
hessian_block                1       5           0.532047          -2.057016          -0.764311          -1.611812           3.365637           1.354163          -0.118151          -0.267190           0.045161
hessian_block                1       6          -0.092499          -4.209854          -0.840132           1.966257          -4.453415          -1.666599           3.987850          -7.473970          -3.045256
hessian_block                1       7          -1.125387           2.195264           0.854081           0.498833          -0.748094          -0.227214           0.046180           0.094811          -0.034711
hessian_block                1       8           0.376759          -2.180826          -0.261513          -0.018440          -2.808726           0.406955          -0.836933           3.068627           0.321653
hessian_block                1       9          -0.079271          -0.073110           0.153396           0.665106          -3.093438          -1.085200          -0.186852           0.234560           0.110978
hessian_block                1      10          -4.063419           5.422145           2.622423          -1.414553           3.715366           1.125708          -1.082548           4.587933           1.215730
hessian_block                1      11           1.163233          -3.254308          -1.107430           0.502050          -0.951938          -0.446456           0.218186          -0.214690           0.054173
hessian_block                1      12           0.432731          -2.215780          -0.281251           0.431392          -3.336608           0.367279           1.998704          -3.650333          -2.023302
hessian_block                2       2           8.449785           2.411480           3.595264           2.411480           8.778006           2.791434           3.595264           2.791434           5.629654
hessian_block                2       3           4.281775           3.660139           2.176977          -0.662736          -0.559096          -0.323223           2.270036           1.891673           1.198348
hessian_block                2       4           0.169656           0.529340           0.087519          -1.139311          -0.158672          -0.177584           0.127906           0.443015           0.184723
hessian_block                2       5          -3.562839          -1.101446          -1.659247           3.532667           2.274382           1.771186          -1.049993          -0.437265          -0.790514
hessian_block                2       6          -4.597880          -3.914914          -2.285787          -4.124361          -4.216465          -2.434310          -7.079645          -6.341315          -3.930882
hessian_block                2       7           1.853799           1.003806           0.747674          -1.416334          -2.625081          -1.417649          -0.220229          -0.996690          -0.477047
hessian_block                2       8          -1.729537          -1.764907          -1.007480          -0.739467          -0.939712          -0.539588           2.182987           1.983764           1.329302
hessian_block                2       9          -2.125453           0.269073          -1.025462          -2.044430          -3.282614          -1.300426          -0.765438           0.390219          -0.295400
hessian_block                2      10           4.882533           3.777841           2.443212           4.010641           3.954436           2.534070           4.866199           4.638182           2.840028
hessian_block                2      11          -3.216933          -3.102736          -1.745639          -1.312889          -3.326254          -1.665829          -0.547014          -1.268373          -0.794485
hessian_block                2      12          -1.824835          -1.285641          -0.805726          -1.483879          -0.757413          -0.649327          -4.298573          -3.819579          -2.277535
hessian_block                3       3          11.334174          -0.797087           5.347027          -0.797087           6.228517          -1.447328           5.347027          -1.447328           6.662003
hessian_block                3       4           0.237877          -0.224289          -0.080956          -1.322786           0.278799          -0.660549           0.251713          -0.118036           0.108195
hessian_block                3       5          -2.597789           0.192464          -1.559489           4.294204           0.001656           2.910033          -0.387668           0.121137          -0.120498
hessian_block                3       6          -6.657372           1.027015          -4.104841          -5.500127          -1.373600          -2.629783         -10.441210           1.557249          -6.657074
hessian_block                3       7           2.812961          -0.103602           1.841532          -1.289544           0.105604          -0.760207          -0.095669           0.001341          -0.047875
hessian_block                3       8          -4.217811          -0.139191          -2.126531          -1.777939          -0.291280          -1.188917           2.307006          -0.491897           1.492208
hessian_block                3       9          -0.439784           0.380897           0.046204          -3.880756           0.169894          -2.398241           0.091781           0.188784           0.265714
hessian_block                3      10           6.742070           0.032638           3.983333           6.404286          -2.407886           4.399208           6.790776           0.230105           3.688755
hessian_block                3      11          -4.290902           0.419849          -2.509663          -1.420879           0.009752          -0.958613          -0.425911           0.111555          -0.197144
hessian_block                3      12          -4.213939          -0.142132          -2.102143          -2.521142          -0.067331          -1.490919          -6.932569           0.201789          -4.112513
hessian_block                4       4           5.894555           0.110886          -1.980717           0.110886           6.923120           1.440903          -1.980717           1.440903           4.870690
hessian_block                4       5          -0.404996           1.136579           0.204238           0.171520          -2.812944          -0.915116          -0.000510          -1.145459          -0.637770
hessian_block                4       6          -0.052150           1.339291          -0.110252          -0.201067           0.627784          -0.397820           0.367168           1.566869          -0.370198
hessian_block                4       7          -1.958035          -1.308924           0.785462          -0.275446          -0.070505           0.203412           0.831969           0.049555          -0.479918
hessian_block                4       8          -0.188871           0.310508          -0.204470           0.110030          -0.123762          -0.087855          -0.174763          -0.447277           0.164329
hessian_block                4       9          -0.275429           0.671366           0.132112           0.068532          -1.689558          -1.148738           0.096406          -0.790886          -0.448160
hessian_block                4      10          -0.448058          -1.540541           0.037007          -0.292147          -0.463359           0.423103          -0.017930          -0.862154           0.422262
hessian_block                4      11          -1.858138           0.535396           0.737312          -0.606869          -0.567938          -0.035697           0.890609           0.182703          -0.542742
hessian_block                4      12          -0.074932           0.790052          -0.033780           0.385817           0.738468           0.104866           0.038629           1.153366          -0.201495
hessian_block                5       5           6.142973          -2.450631          -0.928151          -2.450631           9.853238          -1.620683          -0.928151          -1.620683           7.674094
hessian_block                5       6           2.935512          -5.361429           0.433948           2.574974          -5.135133           1.109867           4.334877          -9.242276           1.602482
hessian_block                5       7          -1.589489           3.338335          -0.388938          -0.168442          -0.936696           0.498485           0.239999           0.548803          -1.085069
hessian_block                5       8           0.961185          -1.890266           0.652526           0.930019          -1.264244          -0.367288          -1.075198           3.282787          -1.297796
hessian_block                5       9          -1.257342          -0.469327           1.704473           1.343686          -5.073209           2.725799           1.437955           2.703757          -3.515771
hessian_block                5      10          -2.898849           6.025282          -0.326878          -2.166460           5.174696          -1.041323          -2.664588           5.929208          -1.506142
hessian_block                5      11           2.238116          -4.118484           0.663758           1.209559          -1.597411          -0.014059          -0.325729          -0.804498           1.227526
hessian_block                5      12           1.067382          -1.460061          -0.254417           0.556713          -2.202944           0.437979           2.759644          -5.917365           1.506162
hessian_block                6       6          12.339917           6.948450          13.388917           6.948450          11.962176          12.746978          13.388917          12.746978          27.714691
hessian_block                6       7          -3.120824          -3.136109          -5.472534           1.899515           1.727225           3.385315          -0.040969          -0.230481          -0.663832
hessian_block                6       8           2.520888           2.784026           4.325258           1.669982           1.527932           2.753232          -3.829682          -3.938181          -7.268336
hessian_block                6       9           0.182998           0.262629           0.212380           4.698750           5.064937           7.917752          -0.500897          -0.825120          -1.790176
hessian_block                6      10          -9.248561          -8.308041         -15.105334          -7.719561          -8.112167         -13.665985         -10.003895          -9.852472         -17.109131
hessian_block                6      11           4.639543           4.610045           7.621378           1.269885           1.884440           2.628184           0.462014           0.999462           1.795780
hessian_block                6      12           2.716337           2.123325           3.860897           2.352869           2.143310           4.167967           7.431574           7.118458          12.823801
hessian_block                7       7           6.763957          -0.154945           1.203396          -0.154945           6.232056          -1.295362           1.203396          -1.295362           7.595070
hessian_block                7       8          -1.315920           0.591869          -0.221963          -0.684179           0.066853           0.648284           2.015284          -1.370742           1.032218
hessian_block                7       9           0.286999           0.569238          -0.193289          -2.558830           0.558273          -0.494425           0.673282          -0.460824           1.183891
hessian_block                7      10           3.654848          -2.213079           0.052106           3.215520          -2.043978           0.076199           3.351281          -2.671012           0.653701
hessian_block                7      11          -3.792818           1.438601          -1.867225          -0.283613          -1.518306           2.201770          -1.925113           2.309017          -3.480637
hessian_block                7      12          -0.904181           0.519732           0.265692          -1.522726           0.899672          -0.603806          -3.685410           1.806783          -1.093925
hessian_block                8       8           5.570893           0.517650          -2.429791           0.517650           5.812431           0.488257          -2.429791           0.488257           9.346534
hessian_block                8       9           0.300838          -0.453368          -0.250159           1.956269           1.170098          -2.822394          -0.333410           0.239135           1.390171
hessian_block                8      10          -2.677785          -1.799770           4.320855          -2.798976          -1.634764           4.156812          -3.150085          -1.638778           5.129314
hessian_block                8      11           1.968990           0.831945          -2.696882           0.787688           1.080321          -0.599221           0.624936          -0.454241          -1.409758
hessian_block                8      12          -0.003719           1.413537           0.467276           1.826157          -0.948124          -3.310534           4.132521          -0.259196          -7.127972
hessian_block                9       9           5.012606          -0.451982          -0.751487          -0.451982           9.288176          -1.959234          -0.751487          -1.959234           7.651389
hessian_block                9      10          -0.180517          -4.561240           0.632924          -0.361839          -4.511122           0.834748          -0.528377          -5.461672           1.359269
hessian_block                9      11          -0.074842           3.633743          -0.688429          -0.577094           1.802715           0.131958           0.417173           0.763062          -1.162479
hessian_block                9      12           0.215107           1.131152           0.294164           0.233517           1.242874          -0.687098           0.083036           5.263717          -1.647559
hessian_block               10      10          13.681754           7.541161          10.010956           7.541161          12.518605           9.390407          10.010956           9.390407          16.773892
hessian_block               10      11          -5.001559          -4.393863          -4.989514          -1.421342          -2.081936          -1.520455          -0.690665          -1.240454          -1.536625
hessian_block               10      12          -2.876546          -2.024209          -2.582277          -2.955053          -2.460868          -2.769295          -7.979942          -6.992492          -8.829192
hessian_block               11      11           8.271468           1.567986           1.488842           1.567986           6.859988          -1.175632           1.488842          -1.175632           7.618994
hessian_block               11      12           1.519753           0.285516          -0.187331           1.831825           0.053592           0.792087           5.093490           1.454052           1.529264
hessian_block               12      12           5.512752           0.864509           1.358895           0.864509           6.342397           3.640801           1.358895           3.640801          14.556131
hessian_block_lv             1       1          26.430796          -1.766037           6.623892          -1.766037          24.762214           3.482390           6.623892           3.482390           3.058122
hessian_block_lv_atom        1       1          -1.086846          -0.507059          -0.725320           2.787430           1.841715           1.934192           1.299386           0.808458           0.767901
hessian_block_lv_atom        1       2           2.770450           1.518407           1.829504           3.582644           2.051797           1.826292           1.922893           0.907326           1.003045
hessian_block_lv_atom        1       3           4.146296           2.325909           2.631895          -0.437647           0.081997          -0.166975           2.893131           1.665573           1.730853
hessian_block_lv_atom        1       4           0.138969           0.088178          -0.009096           0.297452           0.232156          -0.283787           0.359911           0.099137           0.057232
hessian_block_lv_atom        1       5          -1.967080          -1.097742          -0.909648           3.745250           2.776974           2.730123          -2.311915          -2.915372          -1.673750
hessian_block_lv_atom        1       6          -4.721625          -3.646897          -3.499835          -5.386952          -3.773153          -3.441231         -10.267399          -8.206794          -6.675723
hessian_block_lv_atom        1       7           1.849602           1.007786           1.677757          -1.459276          -1.501922          -1.147288           0.979609           2.294852           1.273210
hessian_block_lv_atom        1       8          -2.028917          -1.071382          -1.453075          -1.324775          -0.721634          -0.466298           4.383000           4.321137           3.086429
hessian_block_lv_atom        1       9           0.174500           0.249972          -0.250374          -4.246963          -3.128549          -2.600828           1.754752           2.842925           1.592543
hessian_block_lv_atom        1      10           4.982293           3.689350           3.720462           5.603429           3.536214           3.417685           7.632431           6.601720           5.004960
hessian_block_lv_atom        1      11          -2.956688          -1.754772          -2.332700          -1.893663          -0.395905          -0.495612          -1.979786          -2.662390          -1.638162
hessian_block_lv_atom        1      12          -1.300952          -0.801749          -0.679570          -1.266931          -0.999691          -1.306272          -6.666011          -5.756571          -4.528538
symmetry_n_params 39 3 36
symmetry_params a1 b2 c3 x0 x1 x2 x3 x4 x5 x6 x7 x8 x9 x10 x11 x12 x13 x14 x15 x16 x17 x18 x19 x20 x21 x22 x23 x24 x25 x26 x27 x28 x29 x30 x31 x32 x33 x34 x35
symmetry_lv a1 , 0 , 0 
symmetry_lv 0 , b2 , 0 
symmetry_lv 0 , 0 , c3
symmetry_frac x0 , x1 , x2
symmetry_frac x3 , x4 , x5
symmetry_frac x6 , x7 , x8
symmetry_frac x9 , x10 , x11
symmetry_frac x12 , x13 , x14
symmetry_frac x15 , x16 , x17
symmetry_frac x18 , x19 , x20
symmetry_frac x21 , x22 , x23
symmetry_frac x24 , x25 , x26
symmetry_frac x27 , x28 , x29
symmetry_frac x30 , x31 , x32
symmetry_frac x33 , x34 , x35
