# 
# This is the geometry file that corresponds to the current relaxation step.
# If you do not want this file to be written, set the "write_restart_geometry" flag to .false.
#  aims_uuid : 8AD3B4F8-172A-4E8D-A973-1227AB27A13F                                
# 
lattice_vector      5.69558128      0.00000000      0.00000000
lattice_vector      0.00000000      5.89314670      0.00000000
lattice_vector      0.00000000      0.00000000    101.32800833
atom_frac       0.71685222     -0.00269804      0.49985146 Se
atom_frac       0.60859766      0.61640130      0.49230978 Pd
atom_frac       0.00039926      0.49725012      0.49985044 Se
atom_frac       0.10856089      0.11644293      0.49230945 Pd
atom_frac       0.21690118      0.73550868      0.48477891 Se
atom_frac       0.50034954      0.23555974      0.48477968 Se
# 
# What follows is the current estimated Hessian matrix constructed by the BFGS algorithm.
# This is NOT the true Hessian matrix of the system.
# If you do not want this information here, switch it off using the "hessian_to_restart_geometry" keyword.
# 
trust_radius             0.1112789268
hessian_block                1       1           0.849196           0.000698           3.341861           0.000698           1.208099          -2.892927           3.341861          -2.892927         269.036267
hessian_block                1       2           0.005327          -0.155490          -0.747454          -0.168221          -0.611845          -4.300052           0.060758          -3.492302         -52.895091
hessian_block                1       3          -0.062545           0.035672          -1.895129           0.033163           0.245075          -2.136218           1.705357          -0.968411          76.264268
hessian_block                1       4          -0.348902          -0.066469           2.980909          -0.163644          -0.018245           0.471806           1.777115          -0.933855         -51.850724
hessian_block                1       5           0.045013           0.088478           1.915756           0.092158          -0.199598           1.858728          -1.712524           2.150889         -44.079923
hessian_block                1       6          -0.199089           0.097111          -5.595943           0.205844          -0.319517           6.998663          -5.172566           6.136606        -105.407991
hessian_block                2       2           1.248120           0.022560           4.960817           0.022560           1.447835           3.617964           4.960817           3.617964         228.127451
hessian_block                2       3          -0.379956           0.161502          -1.826096           0.280501          -0.280438           2.224081          -1.057745          -1.683473         -35.460272
hessian_block                2       4          -0.212053          -0.003087          -1.488705          -0.277155           0.046744          -0.539831          -1.636388           1.634029          70.694584
hessian_block                2       5          -0.418611          -0.097834          -1.688278           0.282178           0.016888           1.977142          -0.933037           1.721739         -51.755283
hessian_block                2       6           0.046173           0.085080          -0.018495          -0.152595          -0.315215          -3.787054          -0.586193          -0.990207         -67.644583
hessian_block                3       3           0.868503          -0.041043          -3.970267          -0.041043           1.396181          -3.066830          -3.970267          -3.066830         260.059970
hessian_block                3       4           0.000816          -0.126606           0.427743           0.185887          -0.614890          -3.350482           1.426689          -2.745901         -45.762515
hessian_block                3       5          -0.171966          -0.137059           4.997785          -0.282197          -0.187462           6.412350           4.665691           5.262794        -117.249850
hessian_block                3       6           0.034148          -0.008957          -2.102872          -0.059821          -0.254495           2.656847           1.599112           0.462075         -46.784794
hessian_block                4       4           1.201212           0.236733          -4.784091           0.236733           1.393037           4.568258          -4.784091           4.568258         210.532484
hessian_block                4       5           0.015775           0.156751           0.798100          -0.050286          -0.549093          -2.143422           0.197476          -2.450966         -43.582492
hessian_block                4       6          -0.367848          -0.138573           2.418575           0.009715           0.046416          -0.379109           2.666667           1.301215         -48.964531
hessian_block                5       5           0.951957          -0.044667          -4.063290          -0.044667           1.159518          -4.735153          -4.063290          -4.735153         264.706499
hessian_block                5       6          -0.133167           0.002814           1.845684           0.034332           0.063718          -1.949304          -1.960072          -3.369645          83.027856
hessian_block                6       6           0.908783          -0.037474           3.453052          -0.037474           1.083063          -3.540044           3.453052          -3.540044         276.840851
hessian_block_lv             1       1          18.426730           9.236543          -0.465738           9.236543          10.191771          -0.049158          -0.465738          -0.049158           0.071860
hessian_block_lv_atom        1       1          -0.106073           0.178868          -0.004878          -0.526374           0.147758          -0.026856           9.165961           8.959949           0.722831
hessian_block_lv_atom        1       2          -0.190127          -0.202177          -0.018100           0.099567          -0.198820           0.007767          -4.711390          -5.793471          -0.543871
hessian_block_lv_atom        1       3           0.149447          -0.174820           0.006679          -0.841284          -0.203492          -0.060902           7.733204           7.215928           0.559099
hessian_block_lv_atom        1       4           0.113117           0.201244           0.015520           0.208648           0.113962           0.019129          -1.840587          -4.312189          -0.275237
hessian_block_lv_atom        1       5          -0.069664           0.197792          -0.003864           0.370955          -0.107503           0.013249          -5.767179          -3.799432          -0.300440
hessian_block_lv_atom        1       6           0.103301          -0.200908           0.004643           0.688488           0.248093           0.047613          -4.580010          -2.270785          -0.162382
