# 
# This is the geometry file that corresponds to the current relaxation step.
# If you do not want this file to be written, set the "write_restart_geometry" flag to .false.
#  aims_uuid : 5EEC86EB-7F20-4781-A3A0-D94BBEE1978F                                
# 
lattice_vector      3.28800917      0.00000000      0.00000000
lattice_vector     -1.64400459      2.84749947      0.00000000
lattice_vector      0.00000000      0.00000000     13.22994329
atom_frac       0.33079745      0.66612651      0.25406532 W
atom_frac       0.67733997      0.34200033      0.75402610 W
atom_frac       0.34388000      0.67520743      0.88158907 Se
atom_frac       0.66417066      0.33286325      0.38163016 Se
atom_frac       0.66419666      0.33284294      0.12649732 Se
atom_frac       0.34387481      0.67521908      0.62645157 Se
# 
# What follows is the current estimated Hessian matrix constructed by the BFGS algorithm.
# This is NOT the true Hessian matrix of the system.
# If you do not want this information here, switch it off using the "hessian_to_restart_geometry" keyword.
# 
trust_radius             0.0216841309
hessian_block                1       1         442.636058         174.305004          46.078454         174.305004          86.181376          21.090812          46.078454          21.090812         344.490648
hessian_block                1       2        -422.287068        -177.316489         -57.463556        -180.214865         -76.498188         -16.066123          32.486097           7.258813          90.742572
hessian_block                1       3         -10.774072          -5.010397           3.451768          16.641721           7.476882          -0.115452         106.289547          41.016271         -22.251258
hessian_block                1       4          -0.384498           5.968663           3.392327         -12.588665         -11.534400          -3.636848         106.308149          39.979542        -188.910290
hessian_block                1       5           2.340010           6.189209           0.712312         -15.254119         -11.807063          -0.931611        -146.118126         -57.896748        -150.590859
hessian_block                1       6         -10.671197          -4.565606           3.828696          16.681308           7.040626          -0.340779        -145.044120         -51.448690         -59.032823
hessian_block                2       2         430.076254         173.241686         -24.298321         173.241686          88.683626          -3.797655         -24.298321          -3.797655         364.767449
hessian_block                2       3           5.038172           7.590373           0.958096         -14.780814         -12.945886          -3.286304        -109.706111         -43.502586        -149.491835
hessian_block                2       4          -8.164613          -3.679279          -6.600713          16.165017           6.597661           2.744569         -94.914410         -42.388185         -60.041982
hessian_block                2       5          -7.882846          -4.581834          -1.504769          16.040844           7.567652          -1.905042         149.823998          57.365904         -28.222486
hessian_block                2       6           4.079333           7.214303          -1.040389         -13.779860         -12.545633          -1.014381         136.558399          48.388644        -203.305728
hessian_block                3       3           4.814260          -3.282811          -0.509424          -3.282811           5.400300           4.149007          -0.509424           4.149007         184.244051
hessian_block                3       4           0.301901           0.893907           1.951585           0.326993          -0.589668          -2.527689          -4.681144           4.017605          51.947957
hessian_block                3       5          -0.400346           0.976441           1.632024           1.028632          -0.737487          -2.359993           0.312134          -4.216304         -25.919060
hessian_block                3       6           1.879319          -0.878060           0.342379          -1.082406           2.255091           3.224989           0.468571          -0.548552         -24.081865
hessian_block                4       4           6.259885          -3.586868          -2.361837          -3.586868           4.984057          -1.427224          -2.361837          -1.427224         228.675980
hessian_block                4       5           2.189418          -0.982865           0.538284          -0.380291           1.774484          -4.349642          -1.934039           4.259698         -25.659158
hessian_block                4       6           0.657140           0.236771          -4.889043           0.354252          -0.372901           4.167903           5.552678           0.587493           8.435483
hessian_block                5       5           4.723453          -2.794319          -1.887524          -2.794319           4.821640           4.275312          -1.887524           4.275312         186.797777
hessian_block                5       6          -0.110456           0.929638          -0.196442           0.763752          -0.759994          -3.787862           0.509674           5.270976          58.041776
hessian_block                6       6           5.025093          -3.366663           1.954799          -3.366663           5.242043          -2.249871           1.954799          -2.249871         234.391146
hessian_block_lv             1       1          61.812119           5.903542           0.000000           5.903542           1.880063           0.000000           0.000000           0.000000           0.000000
hessian_block_lv_atom        1       1          53.433193          13.545093           0.000000          19.621734           4.653543           0.000000         -15.481424          -1.456623           0.000000
hessian_block_lv_atom        1       2         -45.505693         -12.744944           0.000000         -20.104797          -4.598535           0.000000           4.165258           0.557112           0.000000
hessian_block_lv_atom        1       3          -2.512593          -0.123682           0.000000           1.569181           0.187300           0.000000          30.681592          10.496036           0.000000
hessian_block_lv_atom        1       4          -2.636934          -0.411600           0.000000          -0.232456          -0.085739           0.000000          45.899864          11.552474           0.000000
hessian_block_lv_atom        1       5           0.405396          -0.070953           0.000000          -3.150623          -0.416164           0.000000         -28.718739         -10.112677           0.000000
hessian_block_lv_atom        1       6          -3.183369          -0.193913           0.000000           2.296961           0.259595           0.000000         -36.546553         -11.036322           0.000000
