# 
# This is the geometry file that corresponds to the current relaxation step.
# If you do not want this file to be written, set the "write_restart_geometry" flag to .false.
#  aims_uuid : 1698DE78-1FA1-42FF-A3D9-77F9FBA81682                                
# 
lattice_vector      5.86393491      0.00000000      0.00000000
lattice_vector      0.00000000      5.96474848      0.00000000
lattice_vector      0.00000000      0.00000000      7.38581199
atom_frac       0.50323239      0.00271821      0.00254036 Pd
atom_frac       0.00269756      0.00273620      0.50349586 Pd
atom_frac       0.00279854      0.50324918      0.00255281 Pd
atom_frac       0.50333256      0.50326942      0.50348517 Pd
atom_frac       0.61512460      0.12030238      0.40469252 Se
atom_frac       0.89198430      0.88629508      0.90506431 Se
atom_frac       0.11457647      0.38575350      0.60205940 Se
atom_frac       0.39146986      0.62084837      0.10137973 Se
atom_frac       0.39149141      0.88626108      0.60204891 Se
atom_frac       0.11456968      0.12028057      0.10131842 Se
atom_frac       0.89193945      0.62084571      0.40468832 Se
atom_frac       0.61510440      0.38576153      0.90499542 Se
# 
# What follows is the current estimated Hessian matrix constructed by the BFGS algorithm.
# This is NOT the true Hessian matrix of the system.
# If you do not want this information here, switch it off using the "hessian_to_restart_geometry" keyword.
# 
trust_radius             0.0122424362
hessian_block                1       1           6.093146          -0.553701          -2.570515          -0.553701           8.142467           0.198726          -2.570515           0.198726           6.209994
hessian_block                1       2          -0.421583           1.658579           0.769812          -0.245754           1.695197           0.972315          -0.066482           0.009867          -0.492619
hessian_block                1       3          -0.535495           1.840276           0.655152          -0.068620          -0.233500          -0.109130          -0.527637           1.240391           0.913561
hessian_block                1       4           0.597259          -0.045412          -0.359490           0.168447          -0.829101          -0.512537           0.001978           0.130313           0.014471
hessian_block                1       5          -0.018071          -0.547415          -0.248374          -1.118180           2.571771           1.901780          -0.228085           0.734716           1.533396
hessian_block                1       6          -1.084599          -1.639453          -0.453119           1.519607          -3.374928          -1.965363           2.146986          -2.055094          -0.558932
hessian_block                1       7          -1.016088           2.428496           2.393802           0.398424          -0.369753          -0.583597          -0.026935           0.113906           0.223259
hessian_block                1       8           0.160150          -1.966783          -0.580185          -0.152447          -2.687652           0.808944          -0.377959           1.745743           0.392019
hessian_block                1       9           0.006394          -0.425802           0.236101           0.618061          -3.462252          -2.756222           0.058633          -0.944852          -1.351357
hessian_block                1      10          -2.887294           2.279579           1.587470          -0.674100           1.441739           0.146926           0.186417           0.297144          -1.446298
hessian_block                1      11           0.853667          -3.080246          -2.803683           0.154483           0.479588           1.029987           0.277391           0.120584           0.248277
hessian_block                1      12          -0.181570           0.051882           1.373031          -0.046218          -1.726552           0.868169           1.126207          -1.591443          -2.583908
hessian_block                2       2           6.959729           1.139426           2.459765           1.139426           7.448339           1.422569           2.459765           1.422569           5.401562
hessian_block                2       3           1.997841           1.526064           0.780082          -0.466872          -0.440100          -0.142817           1.042229           0.912534           0.109699
hessian_block                2       4           0.126585           0.264208           0.282543          -0.907752          -0.491392           0.023875           0.039222           0.206044           0.054648
hessian_block                2       5          -2.099529          -0.088217          -1.154898           2.318454           1.613336           0.259576          -0.736559           0.705679          -1.404452
hessian_block                2       6          -1.960889          -1.417256          -0.424661          -2.465478          -2.801341          -0.612768          -2.371925          -1.229548          -1.756593
hessian_block                2       7           0.910120           1.409509          -0.874947          -0.795060          -2.369210          -0.716867          -0.446199          -0.884388          -0.705797
hessian_block                2       8          -1.403316          -1.584918          -0.389532          -0.369598          -0.177954          -0.290278           0.622448           0.508775          -0.085084
hessian_block                2       9          -2.628693           0.159978          -1.228583          -1.323780          -2.978316           0.787981          -1.186181          -0.613085           0.292762
hessian_block                2      10           1.983029           1.157755           0.948618           1.867066           1.707201           1.318095           1.528646           0.453219           1.897399
hessian_block                2      11          -1.708893          -2.887277           0.515573          -0.369897          -1.539923          -1.791126          -0.043799          -0.819727          -0.588590
hessian_block                2      12          -0.188491           0.566483          -0.847478          -0.285089          -0.018818          -0.268109          -1.677459          -1.634388           0.378931
hessian_block                3       3           8.109547          -0.595326           3.455230          -0.595326           6.307230          -1.442724           3.455230          -1.442724           5.759977
hessian_block                3       4           0.354482          -0.238777          -0.086047          -0.955828           0.255775          -0.531561           0.044797          -0.035483          -0.022572
hessian_block                3       5          -0.875841           0.090855          -0.595507           2.050678           0.058480           1.846119          -0.292617          -0.054312           0.614460
hessian_block                3       6          -2.672783           0.961628          -1.911361          -2.562659          -1.624011          -1.063814          -4.016797           1.215648          -2.308210
hessian_block                3       7           0.962770          -0.026510           1.507889          -0.173013           0.222295          -0.292413          -0.442147           0.026820          -0.169019
hessian_block                3       8          -3.613894          -0.127735          -1.921156          -0.989209          -0.763870          -0.515401          -0.133061          -0.485509           0.273453
hessian_block                3       9          -0.955373           0.317556          -0.086218          -1.858860           0.139855          -1.909483          -0.170689           0.282752          -0.580758
hessian_block                3      10           2.723172           0.117087           1.506120           3.396569          -2.223368           2.374852           2.565101           0.548756           0.416130
hessian_block                3      11          -1.489145           0.322963          -1.783051          -0.529969          -0.232538           0.018350           0.194675          -0.012447           0.229977
hessian_block                3      12          -2.439372          -0.286250          -0.600491          -1.148725           0.180777          -0.636853          -2.639727           0.208446          -2.134834
hessian_block                4       4           6.116445           0.099288          -2.088470           0.099288           6.410352           1.263882          -2.088470           1.263882           4.833502
hessian_block                4       5          -0.669446           0.552517           0.259793          -0.018875          -2.630871          -0.877068          -0.216698          -1.129748          -0.503550
hessian_block                4       6          -0.172846           1.160986           0.064511           0.051819           0.658314          -0.298923          -0.168682           0.933776           0.065255
hessian_block                4       7          -2.507333          -1.003462           0.982533          -0.105457          -0.136181           0.139956           0.653635           0.186644          -0.355169
hessian_block                4       8          -0.253226           0.278085          -0.083030           0.197127           0.053622          -0.068380          -0.370856          -0.554364          -0.021432
hessian_block                4       9          -0.222644           0.869073           0.142465           0.652244          -1.134256          -1.073125           0.362226          -0.589447          -0.454059
hessian_block                4      10          -0.139124          -0.944804          -0.082957          -0.142909          -0.235848           0.169221           0.577223          -0.461273          -0.000760
hessian_block                4      11          -1.275105           0.396377           0.669544          -0.904239          -0.416028           0.330953           1.066035           0.146948          -0.537027
hessian_block                4      12          -0.389138           0.287073           0.049615           0.190983           0.142637           0.112609           0.348581           1.223804           0.028557
hessian_block                5       5           5.893793          -0.822415          -0.956477          -0.822415           9.027495          -0.353888          -0.956477          -0.353888           8.581837
hessian_block                5       6           0.809650          -2.722064          -0.698080           0.659903          -4.049929          -0.459888           1.424256          -3.306682           1.335238
hessian_block                5       7          -0.458442           3.467093           1.771061          -0.697557          -0.204428          -1.037538           0.370956           0.171494          -0.085750
hessian_block                5       8           0.537934          -1.756031           0.054498           0.629411          -0.878319           0.058699           0.150408           1.740087           0.390989
hessian_block                5       9          -1.573901          -0.913332           2.013868          -0.058857          -5.599013          -0.213868           1.617472           1.154171          -4.451680
hessian_block                5      10          -0.861134           2.630790          -0.042836          -0.529759           2.836941          -0.963258          -0.914691           1.199694          -2.123508
hessian_block                5      11           0.470691          -4.046779          -1.873720           1.107644          -0.445981           2.043521          -0.482369          -0.041182           0.520293
hessian_block                5      12           0.410206           0.930660           1.205643          -0.296108          -0.652457           0.669886           0.529432          -3.694101          -1.305408
hessian_block                6       6           7.500141           3.407054           4.612118           3.407054          11.240505           5.384967           4.612118           5.384967          14.258996
hessian_block                6       7          -1.844244          -3.620022          -0.886939           0.901581           1.380979           0.355138           0.314121          -0.032603           0.629427
hessian_block                6       8           2.251419           2.912198           2.744072           0.490453           1.146662           1.350206          -0.934771          -1.411353          -1.138687
hessian_block                6       9           0.837567           0.928705           1.139002           2.779963           5.056807           1.285322           0.765562           1.079499          -1.169715
hessian_block                6      10          -4.079116          -4.390726          -6.848612          -3.583691          -6.013699          -7.339593          -3.537916          -4.274604          -8.614116
hessian_block                6      11           2.338603           4.458008           0.871095          -0.771868          -0.325865           1.909155          -0.513516           0.399025           0.113962
hessian_block                6      12          -0.356993          -0.898407           1.355426           0.432669           0.353530           1.496709           2.717112           3.255825           2.245238
hessian_block                7       7           9.219888          -1.333892           2.037034          -1.333892           7.018220          -1.668047           2.037034          -1.668047           7.771519
hessian_block                7       8          -1.714407           0.795180          -0.383158          -0.088380          -0.685206           0.647334           1.944290          -0.817412           0.863194
hessian_block                7       9           0.536586           0.422338           0.013522          -5.001021           0.660475          -0.531616          -1.553657           1.091608           0.283555
hessian_block                7      10           1.343373          -0.894190          -0.480319           1.584552          -1.086187          -0.409226          -1.136545           0.042799          -0.765842
hessian_block                7      11          -6.143430           2.509171          -2.632737           2.530242          -3.298612           2.717099          -2.224732           2.406605          -3.515177
hessian_block                7      12           2.277120          -1.027524           1.022228          -0.346605           0.514629          -0.337415          -3.959788           1.079768          -1.072334
hessian_block                8       8           5.818894           0.012398          -2.104762           0.012398           7.052672           1.608282          -2.104762           1.608282           7.525319
hessian_block                8       9           0.378679          -0.144258          -0.277037           2.330412           0.548778          -1.672600           0.342576          -0.062137          -0.088603
hessian_block                8      10          -2.093137          -0.724103           1.117879          -2.444003          -0.805972           1.118597          -1.929084          -1.000446           0.098696
hessian_block                8      11           2.458606          -0.219540          -2.077044          -0.092625           1.090856           0.835668           0.581802          -0.476223          -0.576920
hessian_block                8      12          -0.961791           1.358144           2.440465           1.643820          -2.246594          -2.615917           3.667959          -2.060598          -4.531081
hessian_block                9       9           5.503894          -0.323861          -1.078811          -0.323861          11.675202           0.911732          -1.078811           0.911732           8.530870
hessian_block                9      10          -0.836995          -1.562326          -0.008198          -1.056390          -2.004727           0.383960          -1.331656           0.909799           1.710564
hessian_block                9      11          -0.042703           6.073526           1.840409          -0.235196          -1.094762          -1.954934           0.260575          -0.166403          -0.570598
hessian_block                9      12           0.563101          -2.325501          -0.989343           0.401186          -0.160765          -0.739266           0.196769           4.428482           0.950883
hessian_block               10      10           8.479361           3.767449           4.595718           3.767449          10.639911           5.590619           4.595718           5.590619          12.129913
hessian_block               10      11          -1.494626          -1.725560           1.279874          -0.337494          -1.196921          -2.143594           0.068630          -0.729945          -0.141250
hessian_block               10      12          -0.571598          -0.459222          -1.883087          -1.099019          -1.412046          -1.162114          -2.361511          -1.660247          -0.059065
hessian_block               11      11          10.278371          -2.134796           1.420785          -2.134796           8.439786          -1.495416           1.420785          -1.495416           7.588650
hessian_block               11      12          -2.680127           1.583714          -0.605476           0.334155           0.187427           0.668181           4.572955          -1.499662           0.330268
hessian_block               12      12           6.084565           0.218951          -2.520531           0.218951           6.485256           1.944117          -2.520531           1.944117          10.854619
hessian_block_lv             1       1          34.769017           5.685103           6.358175           5.685103          24.836753           2.402267           6.358175           2.402267           2.042515
hessian_block_lv_atom        1       1           0.998123           0.423811          -0.147586          -3.293621          -3.096113          -0.174760          -2.998219          -3.520672          -0.414241
hessian_block_lv_atom        1       2          -2.031799          -1.715091           0.006305          -3.022019          -3.262521          -0.654037           0.440752           1.114485           0.184699
hessian_block_lv_atom        1       3          -2.535317          -1.593706           0.060168           0.399733           0.654779           0.099892          -2.376347          -2.056848          -0.095387
hessian_block_lv_atom        1       4           0.111701           0.213078          -0.044416           0.606990           0.419689          -0.383894          -0.128792          -0.323497          -0.171098
hessian_block_lv_atom        1       5           2.450197           2.110281           0.828203          -3.502798          -2.444602           0.544284          -4.498036          -4.474073          -1.929580
hessian_block_lv_atom        1       6           2.945959           2.472742          -0.105855           3.263599           2.916796          -0.513823           0.371139          -0.908509          -1.736117
hessian_block_lv_atom        1       7          -4.463334          -4.859371          -0.253387           0.239628           0.872861          -0.121681           1.487215           0.114100           1.020645
hessian_block_lv_atom        1       8           1.359213           0.470535          -0.942674           1.471075           0.719594           0.352469          -0.900824          -1.603835           0.645008
hessian_block_lv_atom        1       9          -1.953562          -1.978442          -1.223906           5.745505           5.968659           0.525029           4.464468           4.650698           1.987420
hessian_block_lv_atom        1      10          -1.792978          -0.359246           0.790517          -0.771969           0.420221           1.056485           2.268440           3.208827           1.917185
hessian_block_lv_atom        1      11           5.901854           6.241139           0.685008          -0.128849          -1.621470           0.116411          -2.144282          -0.994591          -1.155803
hessian_block_lv_atom        1      12          -0.990056          -1.425728           0.347626          -1.007277          -1.547896          -0.846378           4.014481           4.793913          -0.252732
symmetry_n_params 39 3 36
symmetry_params a1 b2 c3 x0 x1 x2 x3 x4 x5 x6 x7 x8 x9 x10 x11 x12 x13 x14 x15 x16 x17 x18 x19 x20 x21 x22 x23 x24 x25 x26 x27 x28 x29 x30 x31 x32 x33 x34 x35
symmetry_lv a1 , 0 , 0 
symmetry_lv 0 , b2 , 0 
symmetry_lv 0 , 0 , c3
symmetry_frac x0 , x1 , x2
symmetry_frac x3 , x4 , x5
symmetry_frac x6 , x7 , x8
symmetry_frac x9 , x10 , x11
symmetry_frac x12 , x13 , x14
symmetry_frac x15 , x16 , x17
symmetry_frac x18 , x19 , x20
symmetry_frac x21 , x22 , x23
symmetry_frac x24 , x25 , x26
symmetry_frac x27 , x28 , x29
symmetry_frac x30 , x31 , x32
symmetry_frac x33 , x34 , x35
