# 
# This is the geometry file that corresponds to the current relaxation step.
# If you do not want this file to be written, set the "write_restart_geometry" flag to .false.
#  aims_uuid : 5E089F62-803F-43DD-AE67-8A660BBC111F                                
# 
lattice_vector      5.87755723      0.00000000      0.00000000
lattice_vector      0.00000000      5.97026091      0.00000000
lattice_vector      0.00000000      0.00000000      7.34576499
atom_frac       0.50421517      0.00413420      0.00396247 Pd
atom_frac       0.00414910      0.00415496      0.50441420 Pd
atom_frac       0.00419812      0.50422788      0.00401593 Pd
atom_frac       0.50426404      0.50424399      0.50436212 Pd
atom_frac       0.61675062      0.12186730      0.40603365 Se
atom_frac       0.89179505      0.88659853      0.90601687 Se
atom_frac       0.11661121      0.38652364      0.60258950 Se
atom_frac       0.39176422      0.62199352      0.10235390 Se
atom_frac       0.39178192      0.88662783      0.60258010 Se
atom_frac       0.11669438      0.12192867      0.10235988 Se
atom_frac       0.89180927      0.62194343      0.40601753 Se
atom_frac       0.61670903      0.38649818      0.90603599 Se
# 
# What follows is the current estimated Hessian matrix constructed by the BFGS algorithm.
# This is NOT the true Hessian matrix of the system.
# If you do not want this information here, switch it off using the "hessian_to_restart_geometry" keyword.
# 
trust_radius             0.0184505087
hessian_block                1       1           6.033484          -0.083406          -2.569007          -0.083406           7.111042          -0.489239          -2.569007          -0.489239           5.597638
hessian_block                1       2           0.116736           0.777596           0.322948           0.431867           0.871044           0.177614           0.361153          -0.184375          -0.340539
hessian_block                1       3           0.199800           0.708585           0.278350          -0.117121          -0.039396          -0.098157          -0.193092           0.399382           0.475144
hessian_block                1       4           0.681052           0.043154          -0.398319           0.312207          -0.434306          -0.631096           0.104982           0.132990           0.012982
hessian_block                1       5          -0.198759          -0.366572          -0.596553          -0.748846           1.080787           1.049542          -0.388735           0.371539           0.794423
hessian_block                1       6          -2.331125          -0.281842           1.068951           0.669503          -1.318087          -0.644765           0.841712          -0.234429          -0.490220
hessian_block                1       7          -0.487207           1.247347           0.913455           0.183767           0.157858           0.270222          -0.159404           0.337235           0.292596
hessian_block                1       8           0.121540          -0.806112           0.158276          -0.354325          -2.510380           0.584815          -0.103656           1.284314           0.219204
hessian_block                1       9          -0.123994          -0.041575           0.675193           0.083131          -1.913362          -1.205193           0.033232          -0.496526          -0.456926
hessian_block                1      10          -1.773748           0.808586           0.519306           0.229264          -0.326570          -0.598317           1.256945          -0.723719          -1.195147
hessian_block                1      11           0.015733          -1.666937          -0.925363          -0.309668           0.299845           0.381165           0.148611          -0.009844           0.199922
hessian_block                1      12          -0.687599          -0.338822           0.552768          -0.296369          -1.331453           1.203407           0.667261          -0.387325          -2.007213
hessian_block                2       2           6.188547           0.639849           2.131343           0.639849           7.709314           1.667480           2.131343           1.667480           4.988041
hessian_block                2       3           0.924947           0.875551           0.106086          -0.285178          -0.339783          -0.030960           0.312721           0.204168          -0.163036
hessian_block                2       4           0.220403           0.474827           0.365784          -0.353373           0.666538           0.600551           0.047086           0.459229           0.084386
hessian_block                2       5          -1.842612          -0.138941          -0.609359           0.916507          -0.458517          -0.299982          -0.727721           0.550800          -0.676108
hessian_block                2       6          -1.098747          -1.447503          -0.816145          -0.641090          -0.944451          -0.119986          -0.261635           0.029212           0.084000
hessian_block                2       7           0.305598           0.642781          -0.315932          -0.563486          -2.165526          -1.221481          -0.225123          -1.013920          -0.707756
hessian_block                2       8          -0.251955           0.478645          -0.042173          -0.071556          -0.192690           0.118380           0.239119           0.255816          -0.336873
hessian_block                2       9          -2.229045           0.952391          -1.215084          -0.250231          -1.702273           0.439068          -1.196789          -0.751474          -0.557990
hessian_block                2      10           0.704020           0.423215           0.630055           0.131963           0.240329           0.416950           0.194827           0.055888           0.426088
hessian_block                2      11          -1.076672          -2.560858          -0.356338          -0.356934          -2.471715          -1.224852          -0.192422          -1.049969          -0.545539
hessian_block                2      12          -0.395310          -0.771826          -0.239388           0.055931           0.434756          -0.160795          -0.644352          -0.584844           0.847190
hessian_block                3       3           6.511150          -0.348615           2.485256          -0.348615           6.329864          -1.317760           2.485256          -1.317760           5.094187
hessian_block                3       4           0.414354          -0.205660          -0.078095          -0.225845           0.180616          -0.274047           0.026700          -0.044747          -0.039472
hessian_block                3       5          -0.288501           0.127141          -0.395641           0.265102           0.403508           0.678600           0.109752          -0.158920           0.494235
hessian_block                3       6          -1.551913           0.526612          -0.664780          -0.159628          -2.041386           0.665011          -0.538989           0.756343          -0.543829
hessian_block                3       7           0.443546           0.235148           0.584566          -0.023168           0.134681           0.166688          -0.245283           0.024873          -0.072424
hessian_block                3       8          -2.204327          -0.384441          -1.053528          -0.437139          -0.773737          -0.338497          -0.757704          -0.442144          -0.147153
hessian_block                3       9          -0.515646           0.079256           0.233254          -0.713426          -0.115079          -0.701583          -0.563498           0.371011          -0.358526
hessian_block                3      10           0.901916           0.602077           0.168117           0.897573          -1.822712           0.846176           0.121303           0.902153          -0.738501
hessian_block                3      11          -0.976205           0.047752          -0.654161          -0.160135          -0.252507          -0.053437           0.162503          -0.042230           0.250007
hessian_block                3      12          -2.293212          -0.276972          -0.744617          -0.678859          -0.017043          -0.274702          -1.184478           0.080538          -1.148770
hessian_block                4       4           6.175457           0.264376          -2.054939           0.264376           7.077592           1.504399          -2.054939           1.504399           4.894171
hessian_block                4       5          -0.414410           0.350649           0.222125           0.014457          -2.850266          -1.132453          -0.106863          -1.064526          -0.381689
hessian_block                4       6          -0.763386          -0.613356          -0.174809          -0.103714           0.023396          -0.253233          -0.044385          -0.158693           0.148100
hessian_block                4       7          -2.252594          -0.394343           1.066564          -0.277488          -0.539233           0.009701           0.442300          -0.161477          -0.381488
hessian_block                4       8          -0.332858           0.850248           0.222875           0.267997          -0.159667          -0.080705          -0.518080          -0.304936           0.028496
hessian_block                4       9          -0.488134           1.017684           0.319743           0.441874          -1.633338          -1.138502           0.174082          -1.038391          -0.673792
hessian_block                4      10           0.290835           0.280942          -0.072001          -0.015259           0.506446           0.074874           0.485230           0.571945          -0.012739
hessian_block                4      11          -1.673376          -0.872984           0.406357          -0.950188          -1.189951           0.270648           1.182525           0.016811          -0.595453
hessian_block                4      12          -0.291437          -0.616210          -0.114683           0.045627          -0.000795           0.197802           0.550759           0.939460           0.018360
hessian_block                5       5           5.716582          -0.096183          -1.682391          -0.096183           7.903648          -0.900794          -1.682391          -0.900794           7.780520
hessian_block                5       6           0.246886          -0.104191          -0.163899          -0.109283          -1.430334           0.201765          -0.366940          -0.436348          -0.035744
hessian_block                5       7          -0.566771           1.690812           0.468444          -0.646439           0.733948          -0.195271           0.427528           0.369091          -0.475521
hessian_block                5       8          -0.441785          -1.517990           0.539075           0.467367          -0.388475          -0.455424           0.179901           0.593543           0.274961
hessian_block                5       9          -2.114212          -1.216479           2.471315          -0.050368          -3.422651           1.085617           2.398106           2.165854          -3.640738
hessian_block                5      10           0.283622           0.582772          -0.004950           0.689799           0.661257          -0.663277           0.628514          -0.732487          -0.722469
hessian_block                5      11           0.779758          -1.328170          -0.417533           0.613544          -0.114893           0.499724          -0.592967           0.236733           0.660293
hessian_block                5      12           0.406113           1.542214          -0.096500          -0.840714          -0.470995           0.728771           0.387679          -1.591300          -0.970299
hessian_block                6       6           8.384715           0.772576           2.439067           0.772576           7.579996           1.822147           2.439067           1.822147           7.196898
hessian_block                6       7          -1.228801          -1.352381          -0.449933           0.804067           0.611680           0.895389           0.391279          -0.533310          -0.079967
hessian_block                6       8          -0.070956           1.191062           0.635044           0.100168           0.627483           0.019989          -0.087444          -0.400773          -0.148259
hessian_block                6       9           0.633170           0.554808           0.638308           0.966661           2.166604           0.130112           0.601918           0.116971           0.063317
hessian_block                6      10          -3.909010          -1.660838          -3.128038          -1.649947          -2.880484          -2.758000          -2.888623          -2.228442          -3.289556
hessian_block                6      11           2.202019           1.661983           0.488242           0.454005          -0.461529          -0.457892          -0.143286           0.589957           0.237812
hessian_block                6      12           1.053066          -0.822997          -0.252455           0.472743          -0.285866           0.392170           0.437771           0.784661          -0.040689
hessian_block                7       7           7.605431          -0.317691           1.955016          -0.317691           6.713695          -1.717502           1.955016          -1.717502           8.060757
hessian_block                7       8           0.064301          -0.019582          -0.176233          -0.197589          -0.513647           0.540935           1.316170          -0.711394           1.193041
hessian_block                7       9           0.822733           0.268342          -0.082437          -2.583520          -0.522967          -0.570261          -0.301479           0.291948           0.689167
hessian_block                7      10           0.819965          -0.864232          -0.496726           0.398488          -0.927403          -0.111469          -0.567077          -0.910105          -0.136797
hessian_block                7      11          -4.343134           1.533774          -2.521033           0.949692          -2.490461           3.080517          -2.454628           2.684371          -3.851971
hessian_block                7      12           0.382841          -0.077859           0.690113          -0.318737           0.454390          -0.244706          -2.215167           0.437433          -1.427769
hessian_block                8       8           7.063251          -0.442429          -0.766141          -0.442429           6.865272           1.646789          -0.766141           1.646789           7.643073
hessian_block                8       9           1.391331          -0.452873           0.314550           0.598496           0.629223          -0.907367          -0.713592           0.478932          -0.029050
hessian_block                8      10          -0.848128           0.067113          -0.119642          -1.293230           0.068140          -0.032482          -0.311810           0.128366          -0.406087
hessian_block                8      11          -0.408568          -0.009996          -1.533111          -0.471247           0.580135           1.079314          -0.132751          -0.476575          -0.949124
hessian_block                8      12          -2.515942           1.063260           1.836037           1.816578          -2.584634          -2.060680           1.640958          -2.167005          -4.240365
hessian_block                9       9           6.379609          -0.759563          -1.753735          -0.759563           8.751548          -0.498713          -1.753735          -0.498713           7.841479
hessian_block                9      10          -1.096778          -0.045696          -0.098828          -0.976647          -0.164370           0.327558          -1.053036           0.950033           0.277194
hessian_block                9      11          -0.790958           3.212758           0.673280          -0.331459           0.119502          -0.096276           0.134717          -0.019572          -0.583494
hessian_block                9      12          -0.302170          -0.900116           0.747308           0.906118          -0.545815          -0.870898          -0.682790           2.436360           0.531223
hessian_block               10      10           7.552667           1.333192           2.310046           1.333192           7.551855           2.399473           2.310046           2.399473           8.029760
hessian_block               10      11          -1.000790          -0.231169           0.317883          -0.394451          -0.334474           0.010550           0.112265          -0.623427          -0.390171
hessian_block               10      12          -0.358660           0.485973          -0.494201          -1.132679          -0.924989          -0.423652           0.180399           0.721943           1.260288
hessian_block               11      11           8.661279           0.062856           1.915051           0.062856           7.819115          -1.804839           1.915051          -1.804839           8.057944
hessian_block               11      12           0.176831           0.893982          -0.139614           0.150986           0.143962           0.498578           2.606729          -1.684623           0.611640
hessian_block               12      12           6.391393          -0.180625          -1.744768          -0.180625           6.775507           1.014701          -1.744768           1.014701           9.668269
hessian_block_lv             1       1          32.576084           5.459232           6.212870           5.459232          24.019409           2.957326           6.212870           2.957326           2.199724
hessian_block_lv_atom        1       1           0.844111           0.791788           0.077400          -1.658887          -1.462145          -0.006696          -1.997686          -2.083266          -0.049057
hessian_block_lv_atom        1       2          -0.425714          -0.524034           0.168125          -0.033371          -0.222798           0.183341           1.211767           1.021247           0.054258
hessian_block_lv_atom        1       3          -0.251190          -0.483552           0.173988          -0.064716           0.463179           0.009191          -0.860849          -0.972815           0.071686
hessian_block_lv_atom        1       4           0.566413           0.479511          -0.008399           1.502628           1.679663           0.204821           0.189806          -0.005517          -0.045822
hessian_block_lv_atom        1       5           0.454976           1.731364           0.407459          -2.697820          -1.862290           0.057372          -4.531118          -3.042076          -1.426263
hessian_block_lv_atom        1       6          -0.044740          -1.294553          -0.668624           0.653668           0.476084          -0.507546          -3.908477          -1.747730          -1.492156
hessian_block_lv_atom        1       7          -2.355187          -1.523121           0.425706          -0.996809          -1.231554          -0.585408           2.815093           0.911435           1.366867
hessian_block_lv_atom        1       8           1.098520           0.535261          -0.162599           0.651894           0.762053           0.317838           1.838491           0.155371           1.297814
hessian_block_lv_atom        1       9          -0.555230          -1.336614          -0.393695           3.128699           2.390722          -0.095878           3.816923           2.447687           1.231186
hessian_block_lv_atom        1      10           0.226152           1.434483           0.604913           1.403796           1.375713           0.667765           5.443652           3.439410           1.687704
hessian_block_lv_atom        1      11           2.338668           1.190240          -0.594617          -0.947082          -0.845252           0.229050          -3.967486          -2.142267          -1.626547
hessian_block_lv_atom        1      12          -1.896771          -1.000769          -0.029655          -0.942012          -1.523380          -0.473851          -0.050119           2.018523          -1.069670
