# 
# This is the geometry file that corresponds to the current relaxation step.
# If you do not want this file to be written, set the "write_restart_geometry" flag to .false.
#  aims_uuid : 18DD5C0A-6AFA-4D30-A04E-DC7789BFDC14                                
# 
lattice_vector      5.87988861      0.00000000      0.00000000
lattice_vector      0.00000000      5.97252454      0.00000000
lattice_vector      0.00000000      0.00000000      7.29505675
atom_frac       0.50432490      0.00434088      0.00431745 Pd
atom_frac       0.00432879      0.00435293      0.50432421 Pd
atom_frac       0.00432959      0.50429950      0.00426954 Pd
atom_frac       0.50432641      0.50431643      0.50437273 Pd
atom_frac       0.61627015      0.12155572      0.40482715 Se
atom_frac       0.89228757      0.88702864      0.90477446 Se
atom_frac       0.11626684      0.38706225      0.60386573 Se
atom_frac       0.39238460      0.62154744      0.10384119 Se
atom_frac       0.39238307      0.88701074      0.60383256 Se
atom_frac       0.11625065      0.12153728      0.10379419 Se
atom_frac       0.89229593      0.62158681      0.40480063 Se
atom_frac       0.61629233      0.38710220      0.90472099 Se
# 
# What follows is the current estimated Hessian matrix constructed by the BFGS algorithm.
# This is NOT the true Hessian matrix of the system.
# If you do not want this information here, switch it off using the "hessian_to_restart_geometry" keyword.
# 
trust_radius             0.0122424362
hessian_block                1       1           5.971463          -0.086232          -2.407300          -0.086232           6.991332          -0.417611          -2.407300          -0.417611           5.818592
hessian_block                1       2           0.056737           0.633124           0.232209           0.315170           0.770337           0.281768           0.167317          -0.332975          -0.631260
hessian_block                1       3           0.072976           0.487277          -0.028884          -0.144190          -0.058138          -0.013288          -0.218093           0.333892           0.423031
hessian_block                1       4           0.541304          -0.005068          -0.405578           0.167117          -0.433034          -0.501987           0.098779           0.113912          -0.009710
hessian_block                1       5          -0.220060          -0.206588          -0.047130          -0.745720           0.986294           1.189775          -0.247093           0.714727           1.433766
hessian_block                1       6          -1.930008          -0.074674           0.588550           0.758359          -1.208807          -0.792521           1.141443           0.286565           0.640240
hessian_block                1       7          -0.445377           1.172229           1.578921           0.211972           0.111729          -0.143078          -0.019616           0.061391           0.061992
hessian_block                1       8           0.299501          -0.830426          -0.036009          -0.329640          -2.410231           0.934078           0.004638           1.009540          -0.157162
hessian_block                1       9           0.056482          -0.052233           0.313046           0.036438          -1.861137          -1.756569          -0.041499          -0.810566          -1.135385
hessian_block                1      10          -2.199811           0.582451           0.680098          -0.021947          -0.455025          -0.813479           0.922907          -1.195552          -2.227481
hessian_block                1      11           0.015357          -1.549733          -1.681553          -0.030690           0.486131           0.973067           0.118084           0.304973           0.498481
hessian_block                1      12          -0.652653          -0.070126           1.213634          -0.130632          -1.272428           1.059841           0.480433          -0.068294          -1.613239
hessian_block                2       2           6.096329           0.551881           2.205103           0.551881           7.491687           1.506910           2.205103           1.506910           5.337433
hessian_block                2       3           0.874611           0.770843           0.442166          -0.341954          -0.399301          -0.138761           0.282999           0.168682          -0.112831
hessian_block                2       4           0.237390           0.316343           0.385043          -0.346636           0.474759           0.463610           0.049304           0.440201           0.096925
hessian_block                2       5          -1.918545          -0.243719          -1.197805           0.742652          -0.524922          -0.494512          -0.729396           0.677662          -1.323790
hessian_block                2       6          -0.797310          -0.842674          -0.252762          -0.557224          -0.730239           0.087456          -0.438865           0.262472          -1.134820
hessian_block                2       7          -0.159709           0.466703          -1.171183          -0.479192          -1.993297          -0.721976          -0.444119          -1.024900          -0.653796
hessian_block                2       8          -0.309743           0.698742           0.122827          -0.155054          -0.213528          -0.263637           0.110112           0.269713          -0.081973
hessian_block                2       9          -2.138232           1.196351          -0.853996           0.057767          -1.512074           1.175620          -1.175964          -0.787604           0.133214
hessian_block                2      10           0.553276          -0.097482           0.478235           0.241747           0.021045           0.720283           0.374090          -0.205011           1.557713
hessian_block                2      11          -0.553419          -2.275873           0.634643          -0.495464          -2.358391          -1.970897          -0.009300          -0.948254          -0.704610
hessian_block                2      12          -0.375474          -0.856289          -0.959587           0.148350           0.620951          -0.031122          -0.456172          -0.641639           0.619660
hessian_block                3       3           6.653179          -0.451258           2.480809          -0.451258           6.312682          -1.342029           2.480809          -1.342029           5.096259
hessian_block                3       4           0.510412          -0.271390          -0.057726          -0.204964           0.124533          -0.265034           0.047586          -0.045814          -0.048814
hessian_block                3       5          -0.650507           0.130287          -0.373530          -0.036696           0.371966           0.630015          -0.281572          -0.062958           0.548489
hessian_block                3       6          -1.112222           0.759612          -0.615808          -0.023692          -1.990391           0.652955          -1.482711           0.933815          -0.593529
hessian_block                3       7          -0.516056           0.210132           0.389325           0.268802           0.130791           0.178452          -0.468351           0.078334          -0.295263
hessian_block                3       8          -2.271431          -0.307866          -1.160557          -0.732712          -0.760459          -0.351472          -0.779853          -0.402728          -0.310706
hessian_block                3       9          -0.298683           0.179694           0.186352          -0.022644          -0.127326          -0.569886          -0.159839           0.309184          -0.417114
hessian_block                3      10           0.827197           0.353183           0.200427           1.266846          -1.957919           0.971918           1.034049           0.713164          -0.680657
hessian_block                3      11           0.079708           0.091462          -0.426190          -0.760313          -0.088406          -0.121707           0.255033          -0.038860           0.431776
hessian_block                3      12          -2.603274          -0.207714          -0.688007          -0.561491           0.088992          -0.285788          -1.058433           0.009941          -0.938779
hessian_block                4       4           6.073914           0.074500          -2.058388           0.074500           6.809522           1.496777          -2.058388           1.496777           4.896374
hessian_block                4       5          -0.702305           0.097642           0.159691          -0.032286          -2.832782          -1.155115          -0.312291          -1.161300          -0.444452
hessian_block                4       6          -0.245566           0.015753          -0.125548           0.035292           0.192219          -0.179669          -0.398209          -0.214181           0.099519
hessian_block                4       7          -2.560319          -0.477575           1.041903          -0.021105          -0.310205           0.078229           0.580500           0.138624          -0.336919
hessian_block                4       8          -0.125601           1.186462           0.294507           0.114624          -0.253061          -0.105383          -0.310467           0.002871           0.070421
hessian_block                4       9          -0.210225           1.361869           0.374494           0.721792          -1.512483          -1.075186           0.446820          -0.842230          -0.602098
hessian_block                4      10          -0.055500          -0.263491          -0.107831          -0.046630           0.264544           0.039350           0.767110           0.541682           0.039189
hessian_block                4      11          -1.269237          -0.694467           0.440932          -1.090294          -1.095187           0.186525           1.074035          -0.170483          -0.636362
hessian_block                4      12          -0.628361          -0.916216          -0.215428           0.204225           0.218207           0.206175           0.289151           0.511650          -0.022210
hessian_block                5       5           6.084618           0.115152          -1.020795           0.115152           7.768347          -0.518073          -1.020795          -0.518073           8.571652
hessian_block                5       6           0.555469           0.149252          -0.537733          -0.266742          -1.436781          -0.216966           0.805909           0.059362           1.446478
hessian_block                5       7           0.011387           1.508357           1.604929          -0.936904           0.580146          -0.799672           0.538252           0.105111          -0.285010
hessian_block                5       8          -0.347146          -1.630108           0.457675           0.733047          -0.301205          -0.025106           0.188607           0.354236           0.257068
hessian_block                5       9          -2.130882          -1.231637           2.143117          -0.638551          -3.435185           0.000754           1.801266           1.798321          -4.451825
hessian_block                5      10          -0.303884           0.282432          -0.169746           0.201869           0.559796          -1.154214          -0.580904          -1.192857          -2.198954
hessian_block                5      11           0.213861          -1.125426          -1.681456           1.651232           0.238609           1.791540          -0.493179           0.535788           0.666659
hessian_block                5      12           0.973906           2.004033           0.774355          -0.636727          -0.327264           0.753608           0.219621          -1.312052          -1.118215
hessian_block                6       6           6.280520           0.433888           2.004534           0.433888           7.518278           1.273996           2.004534           1.273996          10.091949
hessian_block                6       7          -0.396804          -1.255171           1.517117           0.497779           0.563273          -0.249451           0.243126          -0.069017           0.476287
hessian_block                6       8          -0.580085           1.231903           0.630829           0.253220           0.526334           0.807266          -0.372424          -0.020538          -0.073779
hessian_block                6       9          -0.200480           0.621008           0.273040           0.536834           2.043791          -1.815027           0.706172           0.491343          -1.411484
hessian_block                6      10          -2.058432          -1.388063          -3.734082          -1.068363          -2.829750          -3.912242          -2.276080          -1.700747          -6.145807
hessian_block                6      11           1.077347           1.432973          -1.758851          -0.309207          -0.670846           1.978405          -0.289052           0.105963           0.134216
hessian_block                6      12           0.973488          -1.022531           1.439844          -0.351426          -0.330058           0.589020           0.927025           0.367746          -0.427406
hessian_block                7       7           7.854832          -0.811943           1.960556          -0.811943           6.823493          -1.663801           1.960556          -1.663801           7.797561
hessian_block                7       8           0.195402          -0.185914          -0.086652           0.172347          -0.762488           0.665572           1.142315          -0.575348           0.813954
hessian_block                7       9           1.026812           0.278549          -0.086580          -3.124792          -0.181516          -0.339828          -1.316288           0.823415           0.504914
hessian_block                7      10          -0.420273          -0.359541          -0.415609          -0.493903          -0.461340          -0.328142          -2.481694           0.223877          -0.514882
hessian_block                7      11          -4.607950           1.965189          -2.550855           2.433586          -3.195201           2.751565          -2.121016           2.457252          -3.579750
hessian_block                7      12           1.583964          -0.427686           0.749345           0.200036           0.341629          -0.374903          -2.144885           0.392100          -0.887221
hessian_block                8       8           6.971793          -0.394005          -0.795681          -0.394005           7.044187           1.678571          -0.795681           1.678571           7.230972
hessian_block                8       9           1.292697          -0.454043           0.233491           0.487210           0.205928          -0.517900          -0.694828           0.080687          -0.036247
hessian_block                8      10          -0.475143          -0.313258           0.232506          -1.286965          -0.282075           0.037095          -0.220488          -0.667721          -0.323311
hessian_block                8      11          -0.686914          -0.408807          -1.364158          -0.648094           1.286250           0.452432          -0.254728          -0.458808          -0.657731
hessian_block                8      12          -2.397425           1.514278           1.710913           1.679061          -2.432629          -2.287944           1.743105          -2.294047          -3.629643
hessian_block                9       9           6.152446          -0.728641          -1.525802          -0.728641           9.241806           0.494558          -1.525802           0.494558           8.636568
hessian_block                9      10          -0.313861           0.741455           0.270828          -0.761329           0.565647           0.853927          -0.584594           2.809395           1.775288
hessian_block                9      11          -1.118005           3.724459           1.764303          -0.958605          -1.014442          -1.430311           0.006402          -0.509128          -0.622941
hessian_block                9      12          -0.552162          -1.791326          -0.075164           0.549020          -0.765986          -0.980728          -0.478972           2.103195           0.728974
hessian_block               10      10           6.180298           1.225732           2.716349           1.225732           8.011091           3.444984           2.716349           3.444984          10.805479
hessian_block               10      11           0.539481           0.855939           2.516075          -0.310299          -0.963176          -2.248347           0.141447          -0.549419          -0.405998
hessian_block               10      12          -0.707437          -0.112995          -2.186820          -0.453119          -0.825812          -0.522863          -0.292619           0.689941           1.421284
hessian_block               11      11           8.896581          -1.552486           1.533704          -1.552486           9.100813          -1.283855           1.533704          -1.283855           7.807640
hessian_block               11      12          -1.020892           2.070632           0.038576          -0.463237          -0.079125           0.554825           2.573407          -1.078417           0.170486
hessian_block               12      12           6.972234          -0.184059          -1.801660          -0.184059           6.410548           1.319875          -1.801660           1.319875           8.798175
hessian_block_lv             1       1          32.266578           4.706422           5.600405           4.706422          24.976199           2.345293           5.600405           2.345293           1.708101
hessian_block_lv_atom        1       1           0.975930           0.472759           0.278828          -1.791843          -1.899273          -0.210560          -1.948047          -2.780982          -0.004222
hessian_block_lv_atom        1       2          -0.567262          -0.430833          -0.113611          -0.042128          -0.587317           0.218353           1.042192           1.739143          -0.174227
hessian_block_lv_atom        1       3          -0.516646           0.152150          -0.289417          -0.009448           0.293343           0.063713          -0.922638          -0.935464          -0.130335
hessian_block_lv_atom        1       4           0.623092           0.584015           0.064902           1.678023           1.522828           0.502612           0.124291          -0.009845          -0.035738
hessian_block_lv_atom        1       5           1.030138           0.836521           0.566238          -2.677663          -2.205097          -0.333307          -3.807870          -3.966794          -1.191116
hessian_block_lv_atom        1       6          -0.528095          -0.556383          -0.633551           0.645722           1.018589          -0.074870          -2.800290          -3.573186          -0.714999
hessian_block_lv_atom        1       7          -2.041248          -2.984646           0.392366          -1.251337          -0.252894          -0.636857           2.002391           0.433997           1.372137
hessian_block_lv_atom        1       8           0.754392           0.701188           0.054167           0.991015           0.206940           0.430357           1.008051           0.058258           1.173336
hessian_block_lv_atom        1       9          -1.061519          -0.948548          -0.266488           2.989934           3.921222          -0.046572           3.037373           3.435020           0.989983
hessian_block_lv_atom        1      10           0.565594           1.512587           0.284982           1.425702           2.052043           0.157304           4.510745           5.218653           1.098356
hessian_block_lv_atom        1      11           2.039464           2.965912          -0.639978          -0.743816          -2.502860           0.278096          -3.207605          -1.929513          -1.570200
hessian_block_lv_atom        1      12          -1.273832          -2.304718           0.301564          -1.214174          -1.567528          -0.348271           0.961403           2.310712          -0.812975
symmetry_n_params 39 3 36
symmetry_params a1 b2 c3 x0 x1 x2 x3 x4 x5 x6 x7 x8 x9 x10 x11 x12 x13 x14 x15 x16 x17 x18 x19 x20 x21 x22 x23 x24 x25 x26 x27 x28 x29 x30 x31 x32 x33 x34 x35
symmetry_lv a1 , 0 , 0 
symmetry_lv 0 , b2 , 0 
symmetry_lv 0 , 0 , c3
symmetry_frac x0 , x1 , x2
symmetry_frac x3 , x4 , x5
symmetry_frac x6 , x7 , x8
symmetry_frac x9 , x10 , x11
symmetry_frac x12 , x13 , x14
symmetry_frac x15 , x16 , x17
symmetry_frac x18 , x19 , x20
symmetry_frac x21 , x22 , x23
symmetry_frac x24 , x25 , x26
symmetry_frac x27 , x28 , x29
symmetry_frac x30 , x31 , x32
symmetry_frac x33 , x34 , x35
