# 
# This is the geometry file that corresponds to the current relaxation step.
# If you do not want this file to be written, set the "write_restart_geometry" flag to .false.
#  aims_uuid : C32D5642-6941-4F06-A742-796AC8FA000F                                
# 
lattice_vector      3.28840769      0.00000000      0.00000000
lattice_vector     -1.64420385      2.84784460      0.00000000
lattice_vector      0.00000000      0.00000000    102.61844778
atom_frac       0.00009033      0.00018309      0.50023392 Se
atom_frac       0.33346304      0.66695008      0.48377737 W
atom_frac       0.00011339      0.00020034      0.46732161 Se
# 
# What follows is the current estimated Hessian matrix constructed by the BFGS algorithm.
# This is NOT the true Hessian matrix of the system.
# If you do not want this information here, switch it off using the "hessian_to_restart_geometry" keyword.
# 
trust_radius             0.0212829235
hessian_block                1       1           1.050065          -0.551242           1.209772          -0.551242           1.132981          -2.766076           1.209772          -2.766076        3312.731439
hessian_block                1       2          -1.034249           0.635566          -4.785839           0.555452          -1.055735         -10.486656          -0.060043           2.375060       -3274.653987
hessian_block                1       3           0.204690          -0.194577           3.576067          -0.114463           0.143260          13.252731          -1.149729           0.391016         181.298452
hessian_block                2       2           2.315582          -1.295420          -0.042236          -1.295420           2.347694          10.576885          -0.042236          10.576885        5416.656219
hessian_block                2       3          -1.060828           0.629715           0.102279           0.549601          -1.071453         -12.951945           4.828074          -0.090230       -1922.626328
hessian_block                3       3           1.076644          -0.545391          -3.678345          -0.545391           1.148699          -0.300786          -3.678345          -0.300786        1960.703780
hessian_block_lv             1       1          25.169075           0.121098           0.000000           0.121098           0.014637           0.000000           0.000000           0.000000           0.000000
hessian_block_lv_atom        1       1          -0.215103           0.003284           0.000000           0.936731          -0.004170           0.000000          36.099715           5.763172           0.000000
hessian_block_lv_atom        1       2           1.100469          -0.013318           0.000000          -1.670242          -0.024573           0.000000          -5.082295          -3.182918           0.000000
hessian_block_lv_atom        1       3          -0.885367           0.010034           0.000000           0.733511           0.028743           0.000000         -31.017421          -2.580253           0.000000
