# 
# This is the geometry file that corresponds to the current relaxation step.
# If you do not want this file to be written, set the "write_restart_geometry" flag to .false.
#  aims_uuid : 560F999C-8918-4AA2-A279-9A73AF46723C                                
# 
lattice_vector      3.28823625      0.00000000      0.00000000
lattice_vector     -1.64411812      2.84769612      0.00000000
lattice_vector      0.00000000      0.00000000     13.19552544
atom_frac       0.33689729      0.67060911      0.25343417 W
atom_frac       0.67000588      0.33628311      0.75347032 W
atom_frac       0.33664833      0.66960837      0.88112731 Se
atom_frac       0.67033113      0.33733975      0.38108194 Se
atom_frac       0.67025418      0.33730582      0.12577880 Se
atom_frac       0.33655372      0.66954437      0.62579801 Se
# 
# What follows is the current estimated Hessian matrix constructed by the BFGS algorithm.
# This is NOT the true Hessian matrix of the system.
# If you do not want this information here, switch it off using the "hessian_to_restart_geometry" keyword.
# 
trust_radius             0.0937894256
hessian_block                1       1           8.365792          -4.202949          -0.922817          -4.202949           8.799305           0.963097          -0.922817           0.963097         205.095866
hessian_block                1       2           0.593841           0.365330          -1.113682          -0.056635          -0.088947          -0.477098           0.555373          -2.233676         -31.234243
hessian_block                1       3          -0.004136          -0.136357           0.972931          -0.018976           0.096641          -0.184757           1.172023          -0.663313          20.729978
hessian_block                1       4          -3.691532           1.931662           0.039089           1.875494          -4.039605          -0.189473           0.449488          -0.674350        -101.580078
hessian_block                1       5          -4.089358           1.871283           0.875013           2.001668          -4.044290          -0.808940           0.617675          -0.517474         -95.321435
hessian_block                1       6          -0.315374          -0.258584           0.149466          -0.028218           0.136129           0.697172          -1.871742           3.125715          16.757901
hessian_block                2       2           8.387059          -4.244391          -1.056833          -4.244391           8.863999          -0.691183          -1.056833          -0.691183         227.148250
hessian_block                2       3          -3.955805           2.058337           1.619332           2.048611          -4.343957          -0.576375           2.017217          -1.583532        -100.753932
hessian_block                2       4           0.096889          -0.381140          -0.600254          -0.498182           0.468978           1.595093           0.446944           1.185619          16.670849
hessian_block                2       5          -0.174276           0.086378          -0.651697          -0.259903           0.186956           1.440017           0.656407          -1.116870          18.983251
hessian_block                2       6          -4.088476           2.107834           0.134079           2.158918          -4.227797           0.466124          -0.950054           2.683065        -116.366185
hessian_block                3       3           4.184571          -2.374522          -0.305369          -2.374522           4.293548           0.712657          -0.305369           0.712657         122.637707
hessian_block                3       4           0.152238           0.256643           0.258561           0.309563           0.045898          -0.250376          -1.166048           0.342842          -6.050552
hessian_block                3       5          -0.036507          -0.059639          -0.745294           0.021448          -0.234242           0.032741           0.051055           0.332362          -8.875159
hessian_block                3       6           0.518870          -0.281733          -2.397139          -0.308085           1.001345           1.751823          -1.171901          -0.626728         -13.240053
hessian_block                4       4           3.889091          -2.373743           0.695996          -2.373743           4.074071          -0.514474           0.695996          -0.514474         121.128669
hessian_block                4       5           0.506572          -0.039489          -0.558898          -0.131716           0.820007           0.512696          -0.525808           0.541514          -9.378852
hessian_block                4       6          -0.094026           0.296740           0.132518           0.268677          -0.510117          -0.852333           0.132417          -1.182283          -6.342046
hessian_block                5       5           4.204054          -2.314987          -0.232503          -2.314987           3.970314           0.137257          -0.232503           0.137257         113.648828
hessian_block                5       6           0.448747           0.253872          -0.566826           0.026839           0.160487           0.623213           1.313379          -1.313770          -4.608643
hessian_block                6       6           4.389491          -2.547746           2.547901          -2.547746           4.299184          -2.685999           2.547901          -2.685999         138.247018
hessian_block_lv             1       1          49.999454           3.652461           0.000000           3.652461           1.387462           0.000000           0.000000           0.000000           0.000000
hessian_block_lv_atom        1       1           0.697681           0.144196           0.000000          -0.611827          -0.144751           0.000000          -0.072888           0.517892           0.000000
hessian_block_lv_atom        1       2           0.087190           0.182337           0.000000          -0.280348          -0.075133           0.000000           1.925545           0.497801           0.000000
hessian_block_lv_atom        1       3          -0.066786          -0.117333           0.000000           0.334303           0.142101           0.000000          17.874196           6.608597           0.000000
hessian_block_lv_atom        1       4           0.132271           0.168031           0.000000          -0.140567          -0.165791           0.000000          17.159222           5.608584           0.000000
hessian_block_lv_atom        1       5          -0.379688          -0.055969           0.000000           0.176233          -0.017234           0.000000         -16.762016          -5.922013           0.000000
hessian_block_lv_atom        1       6          -0.470669          -0.321262           0.000000           0.522206           0.260808           0.000000         -20.124059          -7.310862           0.000000
