#=======================================================
# FHI-aims file: ./geometry.in
# Created using the Atomic Simulation Environment (ASE)
# Sun Nov 17 12:43:15 2019
#=======================================================
lattice_vector 3.1903157300000000 0.0000000000000000 0.0000000000000000 
lattice_vector -1.5951578649999993 2.7628944682730965 0.0000000000000000 
lattice_vector 0.0000000000000000 0.0000000000000000 14.8790043000000001 
atom -0.0000015951578646 1.8419305664802204 3.7197510750000000 Mo
atom 1.5951594601578656 0.9209639017928760 11.1592532250000005 Mo
atom -0.0000015951578646 1.8419305664802204 12.7241376232482004 S
atom 1.5951594601578656 0.9209639017928760 2.1548666767518001 S
atom 1.5951562698421353 0.9209639017928760 5.2846354732481986 S
atom 0.0000015951578655 1.8419305664802204 9.5943688267518006 S
