# 
# This is the geometry file that corresponds to the current relaxation step.
# If you do not want this file to be written, set the "write_restart_geometry" flag to .false.
#  aims_uuid : D25C8E92-DFFC-41CF-A34A-F50CE8BE109D                                
# 
lattice_vector      3.28816525      0.00000000      0.00000000
lattice_vector     -1.64408263      2.84763464      0.00000000
lattice_vector      0.00000000      0.00000000    102.91373370
atom_frac       0.00020131      0.00049865      0.50068293 Se
atom_frac       0.33361458      0.66708308      0.48427989 W
atom_frac       0.00019677      0.00044358      0.46787463 Se
# 
# What follows is the current estimated Hessian matrix constructed by the BFGS algorithm.
# This is NOT the true Hessian matrix of the system.
# If you do not want this information here, switch it off using the "hessian_to_restart_geometry" keyword.
# 
trust_radius             0.0125000002
hessian_block                1       1           1.725520          -1.126363          17.445112          -1.126363           1.606309         -15.400336          17.445112         -15.400336        2233.683252
hessian_block                1       2          -2.384533           1.733173         -37.829645           1.630753          -2.073991          31.245180         -32.820449          32.142054       -2375.177341
hessian_block                1       3           0.879519          -0.717062          20.384533          -0.614642           0.688187         -15.844844          15.375337         -16.741718         360.869992
hessian_block                2       2           5.184042          -3.567070          78.331548          -3.567070           4.444262         -72.578695          78.331548         -72.578695        5834.654742
hessian_block                2       3          -2.579004           1.826065         -45.511099           1.723645          -2.149765          40.436641         -40.501903          41.333516       -3240.101497
hessian_block                3       3           1.919991          -1.219255          25.126566          -1.219255           1.682084         -24.591797          25.126566         -24.591797        3098.607409
hessian_block_lv             1       1          43.669291           0.286172           0.000000           0.286172           0.014719           0.000000           0.000000           0.000000           0.000000
hessian_block_lv_atom        1       1          -0.106697          -0.029331           0.000000          -1.283225           0.024507           0.000000          80.027970           2.097223           0.000000
hessian_block_lv_atom        1       2           0.202431           0.073141           0.000000           2.311672          -0.063120           0.000000         -33.413677           3.401304           0.000000
hessian_block_lv_atom        1       3          -0.095734          -0.043810           0.000000          -1.028447           0.038613           0.000000         -46.614293          -5.498527           0.000000
