# 
# This is the geometry file that corresponds to the current relaxation step.
# If you do not want this file to be written, set the "write_restart_geometry" flag to .false.
#  aims_uuid : C465DFB7-3362-4AB8-AC15-C094F91ADB96                                
# 
lattice_vector      5.69532599      0.00000000      0.00000000
lattice_vector      0.00000000      5.89261326      0.00000000
lattice_vector      0.00000000      0.00000000    101.32673269
atom_frac       0.71682613     -0.00269889      0.49985610 Se
atom_frac       0.60860181      0.61639869      0.49231376 Pd
atom_frac       0.00043132      0.49724966      0.49985525 Se
atom_frac       0.10856202      0.11644554      0.49231326 Pd
atom_frac       0.21688262      0.73551772      0.48478179 Se
atom_frac       0.50037362      0.23556914      0.48478259 Se
# 
# What follows is the current estimated Hessian matrix constructed by the BFGS algorithm.
# This is NOT the true Hessian matrix of the system.
# If you do not want this information here, switch it off using the "hessian_to_restart_geometry" keyword.
# 
trust_radius             0.1120719683
hessian_block                1       1           0.848917           0.004492           3.352058           0.004492           1.210120          -2.851524           3.352058          -2.851524         268.345658
hessian_block                1       2           0.005702          -0.151751          -0.738529          -0.167963          -0.605173          -4.382894           0.062398          -3.443414         -52.368663
hessian_block                1       3          -0.063032           0.029797          -1.888912           0.036600           0.250038          -2.046920           1.694430          -0.938195          75.927288
hessian_block                1       4          -0.347318          -0.065364           2.937143          -0.164520          -0.021519           0.456553           1.787226          -0.892416         -51.905905
hessian_block                1       5           0.045442           0.088455           1.928838           0.088431          -0.203632           1.867733          -1.715587           2.078049         -43.714154
hessian_block                1       6          -0.200712           0.094370          -5.590598           0.202960          -0.325864           6.957053          -5.180525           6.047501        -105.217417
hessian_block                2       2           1.250658           0.020523           5.030724           0.020523           1.422640           3.728667           5.030724           3.728667         228.714037
hessian_block                2       3          -0.380557           0.167016          -1.878180           0.288929          -0.266100           2.302060          -1.043434          -1.668482         -35.716237
hessian_block                2       4          -0.213798          -0.014360          -1.441727          -0.281473           0.044139          -0.646195          -1.599230           1.642502          71.513953
hessian_block                2       5          -0.417653          -0.088340          -1.705781           0.281337           0.024773           1.915676          -0.981983           1.708009         -52.379829
hessian_block                2       6           0.044649           0.083123          -0.067433          -0.157565          -0.316308          -3.856793          -0.667548          -1.027802         -68.696454
hessian_block                3       3           0.868469          -0.049675          -3.970627          -0.049675           1.406417          -3.035669          -3.970627          -3.035669         259.519526
hessian_block                3       4           0.002367          -0.122753           0.442127           0.187854          -0.624529          -3.359630           1.399313          -2.665026         -46.047513
hessian_block                3       5          -0.174947          -0.139478           4.965795          -0.279944          -0.195818           6.376762           4.694704           5.148032        -116.507749
hessian_block                3       6           0.036700          -0.013623          -2.088290          -0.055048          -0.266037           2.625214           1.643703           0.297522         -46.108509
hessian_block                4       4           1.195593           0.238077          -4.782384           0.238077           1.399035           4.491219          -4.782384           4.491219         211.244681
hessian_block                4       5           0.020778           0.156857           0.820504          -0.045877          -0.547012          -2.155030           0.184887          -2.370423         -44.016349
hessian_block                4       6          -0.368622          -0.136795           2.374571           0.010276           0.053857          -0.421249           2.659955           1.428476         -49.722061
hessian_block                5       5           0.949516          -0.049826          -4.057807          -0.049826           1.158305          -4.689485          -4.057807          -4.689485         264.502024
hessian_block                5       6          -0.134137           0.005879           1.875786           0.032331           0.067355          -1.874183          -1.951548          -3.315656          83.182863
hessian_block                6       6           0.911122          -0.032954           3.495964          -0.032954           1.090966          -3.430042           3.495964          -3.430042         277.628385
hessian_block_lv             1       1          18.119464           9.259414          -0.470618           9.259414          10.371299          -0.056730          -0.470618          -0.056730           0.071683
hessian_block_lv_atom        1       1          -0.108605           0.177815          -0.005267          -0.522342           0.153741          -0.026387           9.114648           8.861285           0.710111
hessian_block_lv_atom        1       2          -0.190623          -0.211368          -0.018986           0.065693          -0.224976           0.005031          -4.626903          -5.844978          -0.546723
hessian_block_lv_atom        1       3           0.156564          -0.167179           0.007671          -0.830773          -0.203888          -0.060897           7.832000           7.191247           0.557188
hessian_block_lv_atom        1       4           0.101561           0.195241           0.014924           0.207131           0.124419           0.020167          -1.891583          -4.354896          -0.281259
hessian_block_lv_atom        1       5          -0.061215           0.210203          -0.003005           0.385809          -0.104659           0.013763          -5.824854          -3.730840          -0.292814
hessian_block_lv_atom        1       6           0.102319          -0.204710           0.004662           0.694482           0.255362           0.048323          -4.603308          -2.121818          -0.146503
