# 
# This is the geometry file that corresponds to the current relaxation step.
# If you do not want this file to be written, set the "write_restart_geometry" flag to .false.
#  aims_uuid : C29B11CA-254B-4472-A8F8-F32BC2F079D1                                
# 
lattice_vector      5.69527207      0.00000000      0.00000000
lattice_vector      0.00000000      5.89258286      0.00000000
lattice_vector      0.00000000      0.00000000    101.32641247
atom_frac       0.71682636     -0.00269640      0.49985664 Se
atom_frac       0.60860262      0.61639894      0.49231431 Pd
atom_frac       0.00043201      0.49724811      0.49985576 Se
atom_frac       0.10856135      0.11644670      0.49231348 Pd
atom_frac       0.21687935      0.73551543      0.48478197 Se
atom_frac       0.50037743      0.23557072      0.48478279 Se
# 
# What follows is the current estimated Hessian matrix constructed by the BFGS algorithm.
# This is NOT the true Hessian matrix of the system.
# If you do not want this information here, switch it off using the "hessian_to_restart_geometry" keyword.
# 
trust_radius             0.1120698795
hessian_block                1       1           0.846634           0.002399           3.354697           0.002399           1.208159          -2.870840           3.354697          -2.870840         268.441437
hessian_block                1       2           0.004196          -0.153643          -0.759752          -0.164294          -0.602408          -4.365915           0.011207          -3.446935         -52.444124
hessian_block                1       3          -0.061706           0.031704          -1.889215           0.032742           0.249661          -2.045389           1.684087          -0.951390          76.010222
hessian_block                1       4          -0.344273          -0.063820           2.953449          -0.163826          -0.021948           0.475903           1.759013          -0.890244         -52.075319
hessian_block                1       5           0.044276           0.088947           1.935555           0.088218          -0.202979           1.870687          -1.680156           2.094810         -43.702246
hessian_block                1       6          -0.200126           0.094414          -5.594733           0.204762          -0.326515           6.935554          -5.128848           6.064599        -105.163163
hessian_block                2       2           1.247523           0.022846           5.023786           0.022846           1.418802           3.751962           5.023786           3.751962         228.488360
hessian_block                2       3          -0.378987           0.164250          -1.856521           0.286652          -0.266473           2.271729          -1.055790          -1.661491         -35.943168
hessian_block                2       4          -0.211483          -0.017162          -1.389808          -0.280660           0.046757          -0.700641          -1.580850           1.661194          71.532421
hessian_block                2       5          -0.417557          -0.089367          -1.706357           0.281591           0.022918           1.927053          -0.969928           1.675726         -52.232861
hessian_block                2       6           0.045308           0.083727          -0.082307          -0.156786          -0.315626          -3.803168          -0.657466          -1.061476         -68.333821
hessian_block                3       3           0.867667          -0.047036          -3.961687          -0.047036           1.410284          -3.006194          -3.961687          -3.006194         259.749222
hessian_block                3       4           0.000004          -0.120237           0.449734           0.186826          -0.631674          -3.380755           1.409425          -2.696113         -46.393313
hessian_block                3       5          -0.174374          -0.136268           4.982471          -0.279899          -0.192236           6.396685           4.680529           5.168442        -116.345787
hessian_block                3       6           0.036396          -0.015853          -2.098816          -0.055846          -0.265591           2.603145           1.617468           0.307526         -46.010370
hessian_block                4       4           1.192936           0.239287          -4.766943           0.239287           1.404730           4.462643          -4.766943           4.462643         211.441022
hessian_block                4       5           0.021117           0.153150           0.803445          -0.046395          -0.550502          -2.156798           0.139101          -2.342353         -43.939188
hessian_block                4       6          -0.369301          -0.134778           2.375909           0.008328           0.056607          -0.380682           2.614467           1.485203         -49.498817
hessian_block                5       5           0.951249          -0.048178          -4.058400          -0.048178           1.160196          -4.699740          -4.058400          -4.699740         264.402292
hessian_block                5       6          -0.135710           0.004663           1.888853           0.031717           0.066573          -1.896884          -1.956714          -3.337887          82.884596
hessian_block                6       6           0.912434          -0.032174           3.511093          -0.032174           1.088522          -3.457965           3.511093          -3.457965         277.188382
hessian_block_lv             1       1          18.093626           9.264803          -0.470690           9.264803          10.389172          -0.057798          -0.470690          -0.057798           0.071652
hessian_block_lv_atom        1       1          -0.102375           0.182288          -0.004582          -0.520092           0.153315          -0.026245           9.123253           8.893065           0.712194
hessian_block_lv_atom        1       2          -0.186233          -0.208467          -0.018563           0.062730          -0.224871           0.004813          -4.546393          -5.788454          -0.539527
hessian_block_lv_atom        1       3           0.152101          -0.170732           0.007175          -0.833152          -0.207272          -0.061212           7.813625           7.166869           0.555657
hessian_block_lv_atom        1       4           0.095808           0.192317           0.014370           0.214361           0.132075           0.021006          -1.857004          -4.373361          -0.279120
hessian_block_lv_atom        1       5          -0.064974           0.207609          -0.003381           0.381969          -0.107705           0.013375          -5.883213          -3.775922          -0.298697
hessian_block_lv_atom        1       6           0.105673          -0.203016           0.004981           0.694185           0.254458           0.048263          -4.650268          -2.122197          -0.150508
