# 
# This is the geometry file that corresponds to the current relaxation step.
# If you do not want this file to be written, set the "write_restart_geometry" flag to .false.
#  aims_uuid : AC251C81-5A7B-4102-A5BD-2714BCE895FF                                
# 
lattice_vector      3.78001137      0.00000000      0.00000000
lattice_vector     -1.89000569      3.27358588      0.00000000
lattice_vector      0.00000000      0.00000000      4.95490553
atom_frac      -0.00033962     -0.00034358     -0.00025873 Pt
atom_frac       0.33318131      0.66617526      0.25925626 Se
atom_frac       0.66635412      0.33336413      0.74019829 Se
# 
# What follows is the current estimated Hessian matrix constructed by the BFGS algorithm.
# This is NOT the true Hessian matrix of the system.
# If you do not want this information here, switch it off using the "hessian_to_restart_geometry" keyword.
# 
trust_radius             0.1000000015
hessian_block                1       1           9.118688          -0.116961           0.631750          -0.116961           7.193402          -0.471895           0.631750          -0.471895          24.257797
hessian_block                1       2          -3.451834          -0.315748          -0.453655          -0.073357          -2.441442           0.707882           0.351332           0.606294         -10.305830
hessian_block                1       3          -3.803771          -0.498832          -0.178095          -0.741223          -2.888878          -0.235987          -0.983082          -0.134399         -10.878956
hessian_block                2       2           5.293185          -1.298807           0.619430          -1.298807           5.638992          -1.301357           0.619430          -1.301357          15.535031
hessian_block                2       3           0.021732           0.440623          -0.970762           0.683014          -1.334467           0.695063          -0.165775           0.593475          -2.156191
hessian_block                3       3           5.645122          -0.873332           1.148857          -0.873332           6.086428          -0.459076           1.148857          -0.459076          16.108158
hessian_block_lv             1       1          34.966616           5.852654           0.000000           5.852654           2.053530           0.000000           0.000000           0.000000           0.000000
hessian_block_lv_atom        1       1           0.566232           0.329965           0.000000           0.320888           0.206050           0.000000           0.374874           0.103644           0.000000
hessian_block_lv_atom        1       2           1.520433           0.206087           0.000000           2.208566           0.211089           0.000000           3.124824           2.620759           0.000000
hessian_block_lv_atom        1       3          -2.086665          -0.536052           0.000000          -2.529455          -0.417138           0.000000          -3.499699          -2.724403           0.000000
