# 
# This is the geometry file that corresponds to the current relaxation step.
# If you do not want this file to be written, set the "write_restart_geometry" flag to .false.
#  aims_uuid : C85821B7-CE70-4E6D-A801-FFACFA8E4D35                                
# 
lattice_vector      3.72022451      0.00000000      0.00000000
lattice_vector     -1.86011226      3.22180893      0.00000000
lattice_vector      0.00000000      0.00000000    101.30403057
atom_frac       0.00040410      0.66710696      0.50098354 Se
atom_frac       0.33392774      0.33379119      0.47487251 Se
atom_frac       0.66701290      0.00044659      0.48792508 Pt
# 
# What follows is the current estimated Hessian matrix constructed by the BFGS algorithm.
# This is NOT the true Hessian matrix of the system.
# If you do not want this information here, switch it off using the "hessian_to_restart_geometry" keyword.
# 
trust_radius             0.0968721193
hessian_block                1       1           1.124489          -0.520092           0.781787          -0.520092           0.941446           1.191752           0.781787           1.191752        1055.443144
hessian_block                1       2           0.203535           0.186280           6.474658          -0.113495          -0.023189          -2.314240          -0.085096           2.213942          -2.483903
hessian_block                1       3          -1.084017           0.211809          -7.256444           0.511584          -0.674250           1.122488          -0.696690          -3.405694        -873.806303
hessian_block                2       2           1.498324          -0.878554           2.599682          -0.878554           1.295636          -2.429284           2.599682          -2.429284         925.541192
hessian_block                2       3          -1.457852           0.870045          -2.514586           0.570271          -1.028441           0.215342          -9.074340           4.743524        -743.904352
hessian_block                3       3           2.785876          -1.203858           9.771030          -1.203858           1.946698          -1.337831           9.771030          -1.337831        1796.863592
hessian_block_lv             1       1          16.644985           0.175400           0.000000           0.175400           0.004644           0.000000           0.000000           0.000000           0.000000
hessian_block_lv_atom        1       1           0.223488           0.006319           0.000000           0.115847           0.002550           0.000000          64.847342           1.682300           0.000000
hessian_block_lv_atom        1       2           0.375693           0.024161           0.000000          -0.144990          -0.011967           0.000000         -52.737520          -1.123143           0.000000
hessian_block_lv_atom        1       3          -0.599180          -0.030479           0.000000           0.029143           0.009417           0.000000         -12.109822          -0.559156           0.000000
