# 
# This is the geometry file that corresponds to the current relaxation step.
# If you do not want this file to be written, set the "write_restart_geometry" flag to .false.
#  aims_uuid : 5617BFC4-9302-4510-A4D1-4C5499154B89                                
# 
lattice_vector      3.77988404      0.00000000      0.00000000
lattice_vector     -1.88994202      3.27347560      0.00000000
lattice_vector      0.00000000      0.00000000      4.95579662
atom_frac      -0.00032996     -0.00033617     -0.00025708 Pt
atom_frac       0.33317740      0.66617767      0.25923322 Se
atom_frac       0.66635184      0.33335778      0.74022313 Se
# 
# What follows is the current estimated Hessian matrix constructed by the BFGS algorithm.
# This is NOT the true Hessian matrix of the system.
# If you do not want this information here, switch it off using the "hessian_to_restart_geometry" keyword.
# 
trust_radius             0.1000000015
hessian_block                1       1           9.052926          -0.167241           0.615103          -0.167241           7.155795          -0.486068           0.615103          -0.486068          24.220013
hessian_block                1       2          -3.437123          -0.303664          -0.458028          -0.051837          -2.423905           0.702710           0.350929           0.606964         -10.293398
hessian_block                1       3          -3.752719          -0.460637          -0.157075          -0.712464          -2.868807          -0.216642          -0.966032          -0.120896         -10.853605
hessian_block                2       2           5.274372          -1.296232           0.619497          -1.296232           5.617386          -1.278700           0.619497          -1.278700          15.534736
hessian_block                2       3           0.025835           0.416528          -0.970426           0.668354          -1.330398           0.671735          -0.161469           0.575989          -2.168328
hessian_block                3       3           5.589968          -0.887432           1.127501          -0.887432           6.062288          -0.455094           1.127501          -0.455094          16.094943
hessian_block_lv             1       1          35.097170           5.868959           0.000000           5.868959           2.050818           0.000000           0.000000           0.000000           0.000000
hessian_block_lv_atom        1       1           0.577844           0.319771           0.000000           0.327088           0.199389           0.000000           0.366341           0.099071           0.000000
hessian_block_lv_atom        1       2           1.511670           0.210403           0.000000           2.223468           0.214243           0.000000           3.185535           2.633630           0.000000
hessian_block_lv_atom        1       3          -2.089514          -0.530174           0.000000          -2.550557          -0.413633           0.000000          -3.551876          -2.732701           0.000000
