# 
# This is the geometry file that corresponds to the current relaxation step.
# If you do not want this file to be written, set the "write_restart_geometry" flag to .false.
#  aims_uuid : 8AFD930F-3472-4B52-A13F-55262FE604C8                                
# 
lattice_vector      3.28800830      0.00000000      0.00000000
lattice_vector     -1.64400415      2.84749871      0.00000000
lattice_vector      0.00000000      0.00000000     13.22835394
atom_frac       0.33074446      0.66609612      0.25406656 W
atom_frac       0.67747532      0.34213223      0.75411167 W
atom_frac       0.34400503      0.67534086      0.88168682 Se
atom_frac       0.66417994      0.33278605      0.38164649 Se
atom_frac       0.66410722      0.33285932      0.12649135 Se
atom_frac       0.34402510      0.67532250      0.62653419 Se
# 
# What follows is the current estimated Hessian matrix constructed by the BFGS algorithm.
# This is NOT the true Hessian matrix of the system.
# If you do not want this information here, switch it off using the "hessian_to_restart_geometry" keyword.
# 
trust_radius             0.0055477680
hessian_block                1       1         479.721023         168.793546           7.397109         168.793546          75.495920           1.136231           7.397109           1.136231         208.116224
hessian_block                1       2        -469.589653        -172.795219          -5.260911        -172.718827         -64.300815          -5.581632           5.183048          -0.180290         -58.329228
hessian_block                1       3          -2.495379          -1.681285           0.114587           7.626851           2.901356           1.861452          50.251728          14.630788          35.092784
hessian_block                1       4          -1.928449           3.617793          -1.205801          -6.051033          -8.198408           0.420440          34.865962          10.285696         -91.867865
hessian_block                1       5          -2.424859           3.273435          -1.065141          -5.598732          -7.877953           0.234125         -53.387562         -12.840951         -98.599211
hessian_block                1       6          -2.423451          -1.637887           0.020158           7.518580           2.839133           1.929383         -44.310286         -13.031475          20.035286
hessian_block                2       2         480.952124         169.158173          -2.787237         169.158173          75.285432          -1.689967          -2.787237          -1.689967         217.227920
hessian_block                2       3          -2.630154           3.269959          -1.321402          -5.836607          -7.920120          -0.048793         -51.747621         -12.976337        -106.387206
hessian_block                2       4          -2.401502          -1.657180           0.146115           7.173720           2.782074           0.929561         -35.998997          -7.957780          32.399080
hessian_block                2       5          -3.069593          -1.791517           0.095858           7.886182           2.942760           0.999598          51.902658          14.705365          28.400847
hessian_block                2       6          -2.401991           3.309774          -1.316382          -6.015864          -7.930099          -0.010108          43.892108          13.500351         -98.863423
hessian_block                3       3           3.590042          -1.845759           2.389308          -1.845759           3.662741          -1.143275           2.389308          -1.143275         122.925639
hessian_block                3       4          -0.030256           0.364254          -1.503976           0.620478           0.005713           0.210595           1.063492          -1.506023          -0.930331
hessian_block                3       5           0.338002           0.407379          -1.929594           0.254400          -0.042579           0.609500          -1.913677           0.542285         -26.811000
hessian_block                3       6           2.086977          -1.145733           2.540155          -1.047410           2.252121          -1.331271          -0.332307           0.294353          -9.441896
hessian_block                4       4           3.276714          -1.856064          -0.361485          -1.856064           3.940998           0.185785          -0.361485           0.185785         121.600114
hessian_block                4       5           2.006628          -0.878313          -0.729156          -1.291838           2.263502           0.578613           2.504795          -1.342104         -12.692988
hessian_block                4       6          -0.063903           0.561596           1.160184           0.393418           0.065354          -1.586292           0.420352          -0.404278         -34.060020
hessian_block                5       5           3.762212          -1.932929           2.826039          -1.932929           3.612204          -1.639282           2.826039          -1.639282         118.600863
hessian_block                5       6           0.246841           0.253301          -1.932252           0.492327          -0.038702           0.574686           0.801994          -0.782554           5.549478
hessian_block                6       6           3.414759          -1.770667          -0.471862          -1.770667           3.671424           0.423602          -0.471862           0.423602         131.228565
hessian_block_lv             1       1          53.757494           3.566829           0.000000           3.566829           1.713321           0.000000           0.000000           0.000000           0.000000
hessian_block_lv_atom        1       1           9.556561           8.522631           0.000000           3.782255           2.312858           0.000000           0.091311           2.582110           0.000000
hessian_block_lv_atom        1       2          -9.657873          -8.486193           0.000000          -2.816678          -2.454977           0.000000           5.831913          -0.820357           0.000000
hessian_block_lv_atom        1       3          -0.230413           0.198067           0.000000           0.093520          -0.030006           0.000000          13.185727           7.608790           0.000000
hessian_block_lv_atom        1       4           0.364987          -0.195413           0.000000          -0.665882           0.081679           0.000000          22.936140           7.153044           0.000000
hessian_block_lv_atom        1       5           0.120612          -0.251713           0.000000          -0.416746           0.136170           0.000000         -17.004769          -7.930073           0.000000
hessian_block_lv_atom        1       6          -0.153873           0.212621           0.000000           0.023531          -0.045725           0.000000         -25.040322          -8.593515           0.000000
