# 
# This is the geometry file that corresponds to the current relaxation step.
# If you do not want this file to be written, set the "write_restart_geometry" flag to .false.
#  aims_uuid : 52280A59-5E82-4B0E-A56B-11A099228023                                
# 
lattice_vector      5.85483215      0.00000000      0.00000000
lattice_vector      0.00000000      5.95916343      0.00000000
lattice_vector      0.00000000      0.00000000      7.43181581
atom_frac       0.50241678      0.00207585      0.00192039 Pd
atom_frac       0.00206304      0.00208424      0.50264988 Pd
atom_frac       0.00214620      0.50244479      0.00196675 Pd
atom_frac       0.50249888      0.50245266      0.50260340 Pd
atom_frac       0.61428801      0.12007031      0.40432049 Se
atom_frac       0.89103089      0.88487745      0.90453332 Se
atom_frac       0.11390757      0.38453582      0.60073504 Se
atom_frac       0.39061924      0.62040789      0.10024562 Se
atom_frac       0.39066260      0.88489901      0.60073536 Se
atom_frac       0.11394005      0.12007751      0.10026384 Se
atom_frac       0.89100341      0.62040397      0.40432236 Se
atom_frac       0.61427029      0.38451744      0.90455049 Se
# 
# What follows is the current estimated Hessian matrix constructed by the BFGS algorithm.
# This is NOT the true Hessian matrix of the system.
# If you do not want this information here, switch it off using the "hessian_to_restart_geometry" keyword.
# 
trust_radius             0.0122098363
hessian_block                1       1           5.961155           0.066770          -2.191801           0.066770           6.465246          -1.043545          -2.191801          -1.043545           4.807314
hessian_block                1       2          -0.025109           0.512172           0.055644           0.299308           0.177660          -0.142829          -0.038854          -0.082519          -0.046949
hessian_block                1       3          -0.060061           0.532974           0.046592          -0.053258          -0.122028           0.106031          -0.170652           0.156089           0.042409
hessian_block                1       4           0.508342           0.192610          -0.079498           0.097996          -0.550352          -0.203726           0.066264          -0.074165          -0.036122
hessian_block                1       5          -0.045088          -0.444079          -0.195620          -0.336993           0.402777           0.371684          -0.268491           0.349115           0.286784
hessian_block                1       6          -1.770846          -0.105891           0.584880           0.442014          -0.426323          -0.271591           1.283915          -0.218854          -0.468029
hessian_block                1       7          -0.364061           0.375366           0.277890           0.106612           0.166440           0.093592           0.164435          -0.035518          -0.055287
hessian_block                1       8          -0.206225          -0.510569           0.330775          -0.337319          -1.874753           0.764329           0.102368           0.737283          -0.518014
hessian_block                1       9          -0.133151           0.009228           0.182780          -0.406193          -0.467162          -0.167699           0.040825          -0.267894          -0.067292
hessian_block                1      10          -2.308894           0.889611           1.063487           0.042659          -0.462118          -0.360677           0.706508          -0.478057          -0.588682
hessian_block                1      11           0.061399          -0.647639          -0.246156           0.243914           0.293745           0.056706           0.044288           0.408957           0.275381
hessian_block                1      12          -0.051551          -0.870554           0.171026          -0.165508          -1.956109           0.797723           0.261195           0.549109          -0.529651
hessian_block                2       2           6.073651           0.303733           2.282538           0.303733           7.303390           1.944978           2.282538           1.944978           5.135217
hessian_block                2       3           0.871267           0.828775           0.443776          -0.418188          -0.516261          -0.328348           0.190764           0.098193           0.110038
hessian_block                2       4           0.199422           0.628432           0.176560          -0.539542           0.713423           0.447186           0.020864           0.515346           0.242449
hessian_block                2       5          -2.075268           0.059019          -0.962597           0.535662          -0.743131          -0.174181          -0.524627          -0.129029          -0.658532
hessian_block                2       6          -0.555809          -0.063567           0.115967          -0.291500          -0.914374          -0.394643          -0.180916          -0.386846          -0.339667
hessian_block                2       7           0.016754          -0.711702          -0.395149          -0.460270          -1.556662          -0.751995          -0.465158          -1.520297          -0.828451
hessian_block                2       8          -0.224860          -0.572437          -0.312551           0.093936          -0.419182          -0.249164          -0.143193          -0.290596          -0.054544
hessian_block                2       9          -2.038567           0.386410          -0.951964           0.565387          -0.833224           0.244740          -1.317406          -0.310657          -0.719949
hessian_block                2      10           0.505321          -0.150121           0.006470           0.183582           0.977699           0.769948           0.147441           0.769347           0.555276
hessian_block                2      11          -0.612602          -0.659636          -0.151200          -0.399588          -3.266692          -1.741024           0.029890          -0.840772          -0.560405
hessian_block                2      12          -0.568291          -0.348213          -0.212995          -0.085384           0.724378           0.315027          -0.095841           0.293161           0.267383
hessian_block                3       3           6.553582          -0.541188           2.404599          -0.541188           6.300766          -1.263904           2.404599          -1.263904           4.850587
hessian_block                3       4           0.336248          -0.278307          -0.044148          -0.284700           0.077851          -0.093542           0.173908          -0.169927           0.040888
hessian_block                3       5          -0.572878           0.132464          -0.296967          -0.196572           0.471856           0.234213           0.270827           0.120786           0.298657
hessian_block                3       6          -0.757402           0.467969          -0.529063          -0.040536          -1.734472           0.710201          -0.706878           0.885313          -0.689790
hessian_block                3       7           0.098260           0.135467           0.231542           0.196822          -0.115391           0.111934          -0.579689           0.190682          -0.287216
hessian_block                3       8          -2.167809          -0.202269          -0.845373          -0.693771          -0.295627          -0.488162          -1.081628          -0.147014          -0.566473
hessian_block                3       9          -0.288326           0.344326           0.128372          -0.045809          -0.172846          -0.071105          -0.775423           0.368079          -0.232578
hessian_block                3      10           0.479668           0.523278           0.181881           1.140808          -2.209203           1.131426           0.236517           0.595149          -0.351232
hessian_block                3      11          -0.446835           0.086820          -0.206064          -0.505025           0.271475          -0.280633           0.345774           0.066233           0.268428
hessian_block                3      12          -2.479803          -0.197113          -1.044891          -0.391776          -0.309093          -0.244709          -0.778374          -0.423080          -0.381856
hessian_block                4       4           5.950165           0.183149          -1.951380           0.183149           7.082342           1.611559          -1.951380           1.611559           4.930513
hessian_block                4       5          -0.483708           0.632028           0.213302           0.087498          -2.370418          -1.189641          -0.024837          -1.439083          -0.680487
hessian_block                4       6          -0.026987           0.509631           0.164938          -0.238760          -0.456444          -0.278957           0.274558          -0.393210          -0.132657
hessian_block                4       7          -2.010669          -0.956400           0.665503          -0.192079          -0.146395           0.327827           0.733141          -0.141212          -0.616343
hessian_block                4       8          -0.284532          -0.223519          -0.188297           0.038415          -0.527960          -0.141595          -0.214484          -0.035014          -0.013638
hessian_block                4       9          -0.273203           0.666519           0.154058           0.125327          -2.218014          -0.996674           0.036208          -0.803059          -0.557007
hessian_block                4      10          -0.424880          -0.442546          -0.182201          -0.148537           0.912886           0.419104           0.089685           0.677873           0.345434
hessian_block                4      11          -1.814390           0.022380           0.904346          -0.837287          -1.448344          -0.290576           0.900761          -0.047587          -0.549538
hessian_block                4      12          -0.109897           0.335006          -0.041306           0.439539           0.578450           0.267695           0.103434           0.419815           0.128376
hessian_block                5       5           5.333385          -0.414785          -1.206604          -0.414785           6.379123          -0.870107          -1.206604          -0.870107           7.720329
hessian_block                5       6           0.290311          -0.450302          -0.427078           0.203001          -0.180066           0.384410           0.088304          -0.407146           0.483043
hessian_block                5       7          -0.391991           1.167849           0.074941          -0.909981           0.065322           0.350629           0.544272           0.570396          -1.027001
hessian_block                5       8           0.129197           0.211314           0.420471           0.497460          -0.022643          -0.490717           0.456776           0.539145          -0.819554
hessian_block                5       9          -1.348351          -0.399192           1.700012          -0.378593          -1.880719           2.108896           1.897379           2.226858          -3.449441
hessian_block                5      10          -0.157558           0.556255           0.471120           0.039504          -0.065712          -0.494566           0.151856          -0.276058          -0.872436
hessian_block                5      11           0.534950          -0.980754          -0.017303           1.003540           0.237938           0.001270          -0.667149          -0.089648           1.249184
hessian_block                5      12           0.352911           0.220020          -0.468428          -0.419579          -0.647303           0.108395          -0.022951          -0.935513           0.571318
hessian_block                6       6           5.713970           0.389698           1.818863           0.389698           5.775626           1.810312           1.818863           1.810312           8.642002
hessian_block                6       7          -0.055856          -0.141803          -0.047112           0.459511           0.172545           0.769082           0.043116           0.148989          -0.157645
hessian_block                6       8          -0.124833           0.365380           0.144078           0.127924           0.258649           0.407238          -0.074341          -0.206064          -0.722955
hessian_block                6       9           0.087891           0.127695           0.011409           0.269947           0.792837           0.186872           0.159316           0.018535          -0.484058
hessian_block                6      10          -1.979501          -1.299796          -2.842786          -1.003799          -2.040479          -3.047323          -2.026569          -2.434838          -4.336641
hessian_block                6      11           0.256879           0.335876          -0.148148          -0.754519           0.591486           0.243378          -0.413078           0.187586           0.539470
hessian_block                6      12           0.488095           0.148731           0.304711           0.153398          -0.191958           0.151184           0.583048           0.326061           0.768789
hessian_block                7       7           5.457464           0.510895           1.118706           0.510895           6.081632          -1.512069           1.118706          -1.512069           7.946996
hessian_block                7       8          -0.023982          -0.124985           0.038312           0.026202          -0.403263           0.934789           0.311566          -0.621920           1.054596
hessian_block                7       9           0.378429           0.596319          -0.243432          -0.669653          -0.439131          -0.341796           0.290911          -0.505854           1.430756
hessian_block                7      10           0.268605          -0.586243          -0.164971           0.071828          -0.344230          -0.526738          -0.450532          -0.845165           0.219987
hessian_block                7      11          -1.889479           0.451059          -1.694352           0.680048          -2.358135           2.966254          -1.473455           2.207089          -3.512835
hessian_block                7      12           0.082438          -0.047660           0.505621          -0.488097           0.524292          -0.733481          -0.604812           0.376850          -1.065692
hessian_block                8       8           4.755579           0.086899          -0.914082           0.086899           5.662956           1.430141          -0.914082           1.430141           7.204900
hessian_block                8       9           0.237621          -0.503581          -0.212243           0.149676           0.195797          -0.268565           0.057180           0.569145           1.057712
hessian_block                8      10           0.063901          -0.233051           0.257674          -0.595744          -0.526944           0.327920          -0.398302          -0.138314           0.644921
hessian_block                8      11           0.166446          -0.156715          -0.202721           0.577178           1.185177           0.683621           0.315139          -0.651755          -0.960598
hessian_block                8      12          -0.754593           1.053604           1.714306           0.839075          -1.585183          -2.148936           1.352647          -1.945936          -3.204491
hessian_block                9       9           5.030509          -0.530287          -0.797059          -0.530287           6.457795          -1.401373          -0.797059          -1.401373           7.793994
hessian_block                9      10          -0.038719           0.266882          -0.143930          -0.202076          -0.097833          -0.122874          -0.380659          -0.112228           0.448866
hessian_block                9      11          -0.181954           0.884704          -0.109661          -0.708369           0.542254           0.807442           0.407295           0.148977          -1.150084
hessian_block                9      12           0.133731          -0.231385           0.661661           0.213009          -0.232727          -0.578348           0.001432           0.669956          -0.969059
hessian_block               10      10           5.859916           0.572392           1.688091           0.572392           6.896559           2.397647           1.688091           2.397647           8.330528
hessian_block               10      11          -0.153855           0.059877           0.449419           0.369243          -1.423515          -0.239281           0.162160          -0.526293          -0.770637
hessian_block               10      12          -0.548092          -0.160496          -0.213455          -0.465902           0.029914           0.083926          -0.496997           0.032424          -0.523521
hessian_block               11      11           5.535921           0.258082           0.802572           0.258082           7.987398          -1.358692           0.802572          -1.358692           7.644697
hessian_block               11      12           0.109432           0.072783          -0.454197           0.345945          -0.965763           0.495908           0.619269          -0.848465           0.628799
hessian_block               12      12           4.911529           0.025280          -0.922050           0.025280           5.678125           1.485619          -0.922050           1.485619           7.411470
hessian_block_lv             1       1          23.340644          -3.661147           4.887285          -3.661147          23.663609           2.432870           4.887285           2.432870           1.890856
hessian_block_lv_atom        1       1           0.241371           0.356870           0.051747          -0.418963          -0.640883          -0.170652          -0.040694          -0.213532           0.037671
hessian_block_lv_atom        1       2          -0.524346          -0.894064          -0.217303           0.152635          -0.188438           0.005332           0.012885          -0.270192          -0.104632
hessian_block_lv_atom        1       3          -0.588879          -0.994695          -0.248527           0.264653           0.466372           0.110957          -0.053040          -0.415703          -0.016346
hessian_block_lv_atom        1       4           0.083025           0.085546          -0.010001           0.771197           0.835627           0.265087           0.055249          -0.023166          -0.040656
hessian_block_lv_atom        1       5           0.296815           0.444153           0.364294           0.114708          -0.061087           0.250431          -1.857147          -2.782984          -1.466329
hessian_block_lv_atom        1       6           0.093459          -0.076545          -0.288266          -0.479326          -0.252297          -0.321736          -1.868291          -2.460872          -1.405924
hessian_block_lv_atom        1       7          -0.558301          -0.822086           0.112226          -0.724213          -0.982825          -0.527031           1.414008           2.517787           1.334539
hessian_block_lv_atom        1       8          -0.041220           0.218882          -0.231384           0.090321           0.227709           0.267942           1.590523           2.264100           1.353220
hessian_block_lv_atom        1       9           0.101922           0.201650          -0.203832          -0.588854          -0.387232          -0.378711           1.716978           2.800135           1.417878
hessian_block_lv_atom        1      10          -0.206300           0.058630           0.321084           0.527989           0.180341           0.350820           2.055289           2.960333           1.530188
hessian_block_lv_atom        1      11           0.603929           0.991838          -0.044271           0.273585           0.782990           0.383627          -1.622981          -2.574251          -1.426632
hessian_block_lv_atom        1      12           0.498525           0.429823           0.394233           0.016272           0.019724          -0.236063          -1.402780          -1.801657          -1.212977
symmetry_n_params 39 3 36
symmetry_params a1 b2 c3 x0 x1 x2 x3 x4 x5 x6 x7 x8 x9 x10 x11 x12 x13 x14 x15 x16 x17 x18 x19 x20 x21 x22 x23 x24 x25 x26 x27 x28 x29 x30 x31 x32 x33 x34 x35
symmetry_lv a1 , 0 , 0 
symmetry_lv 0 , b2 , 0 
symmetry_lv 0 , 0 , c3
symmetry_frac x0 , x1 , x2
symmetry_frac x3 , x4 , x5
symmetry_frac x6 , x7 , x8
symmetry_frac x9 , x10 , x11
symmetry_frac x12 , x13 , x14
symmetry_frac x15 , x16 , x17
symmetry_frac x18 , x19 , x20
symmetry_frac x21 , x22 , x23
symmetry_frac x24 , x25 , x26
symmetry_frac x27 , x28 , x29
symmetry_frac x30 , x31 , x32
symmetry_frac x33 , x34 , x35
