# 
# This is the geometry file that corresponds to the current relaxation step.
# If you do not want this file to be written, set the "write_restart_geometry" flag to .false.
#  aims_uuid : BFCF4032-2938-4E96-AB78-470328BD8FED                                
# 
lattice_vector      5.84433745      0.00000000      0.00000000
lattice_vector      0.00000000      5.95409213      0.00000000
lattice_vector      0.00000000      0.00000000      7.51050198
atom_frac       0.50232250      0.00240651      0.00214544 Pd
atom_frac       0.00233351      0.00237402      0.50265514 Pd
atom_frac       0.00250703      0.50237675      0.00215388 Pd
atom_frac       0.50245193      0.50239327      0.50263341 Pd
atom_frac       0.61449646      0.12077809      0.40570608 Se
atom_frac       0.89026640      0.88401420      0.90553683 Se
atom_frac       0.11452237      0.38405339      0.59928878 Se
atom_frac       0.39036352      0.62078618      0.09908707 Se
atom_frac       0.39033953      0.88408685      0.59930083 Se
atom_frac       0.11449668      0.12076575      0.09909321 Se
atom_frac       0.89028479      0.62076491      0.40571076 Se
atom_frac       0.61446225      0.38404699      0.90553551 Se
# 
# What follows is the current estimated Hessian matrix constructed by the BFGS algorithm.
# This is NOT the true Hessian matrix of the system.
# If you do not want this information here, switch it off using the "hessian_to_restart_geometry" keyword.
# 
trust_radius             0.0976786904
hessian_block                1       1           5.973871           0.050488          -2.150499           0.050488           6.448719          -1.210953          -2.150499          -1.210953           4.675613
hessian_block                1       2          -0.030978           0.466609          -0.085427           0.292044           0.137206          -0.234973          -0.076550           0.017051          -0.013922
hessian_block                1       3          -0.073574           0.486887          -0.132134          -0.059866          -0.088329           0.117437          -0.144190           0.013432          -0.105674
hessian_block                1       4           0.534817           0.111960          -0.069007           0.093808          -0.521140          -0.123528           0.038610           0.015017           0.012873
hessian_block                1       5          -0.055446          -0.410428          -0.101871          -0.350971           0.354395           0.241156          -0.238705           0.162841           0.072392
hessian_block                1       6          -1.808534           0.146720           0.826563           0.484632          -0.445523          -0.135536           1.283439          -0.190439          -0.451965
hessian_block                1       7          -0.381483           0.325376           0.120546           0.142680           0.089214           0.097288           0.143682           0.141062           0.167397
hessian_block                1       8          -0.262444          -0.267088           0.366009          -0.330740          -1.895658           0.824247           0.114689           0.751692          -0.421306
hessian_block                1       9          -0.139956           0.073127           0.189052          -0.406774          -0.370245          -0.056689           0.019698          -0.091517           0.179639
hessian_block                1      10          -2.273768           0.644173           0.830922          -0.007854          -0.410768          -0.437236           0.692247          -0.421295          -0.539865
hessian_block                1      11           0.074286          -0.565718          -0.058702           0.236164           0.326154           0.080274           0.087671           0.183180           0.084353
hessian_block                1      12           0.009120          -1.062109           0.264546          -0.143608          -1.977004           0.838511           0.229909           0.629931          -0.557673
hessian_block                2       2           6.020939           0.274284           2.371722           0.274284           7.329213           2.033413           2.371722           2.033413           5.176527
hessian_block                2       3           0.813335           0.814947           0.569757          -0.401306          -0.520957          -0.342355           0.070043           0.038381           0.178864
hessian_block                2       4           0.152021           0.619899           0.160888          -0.497392           0.776081           0.426983           0.098473           0.576128           0.251174
hessian_block                2       5          -2.006968           0.156706          -0.960330           0.505059          -0.702828          -0.043369          -0.665952          -0.225745          -0.547041
hessian_block                2       6          -0.372864          -0.035354          -0.048373          -0.310332          -1.014313          -0.568688          -0.159930          -0.434231          -0.374900
hessian_block                2       7          -0.019166          -0.671643          -0.245439          -0.529746          -1.641954          -0.816801          -0.332401          -1.464483          -0.969430
hessian_block                2       8          -0.102007          -0.622063          -0.375806           0.111293          -0.361033          -0.252326          -0.132150          -0.281746          -0.131958
hessian_block                2       9          -2.026958           0.323351          -1.005404           0.614966          -0.890850           0.117024          -1.174315          -0.224421          -0.859246
hessian_block                2      10           0.331167          -0.166139           0.172776           0.244012           1.131439           0.936784           0.180530           0.832265           0.545602
hessian_block                2      11          -0.554666          -0.695636          -0.322514          -0.368193          -3.258015          -1.748202          -0.128170          -0.925530          -0.459693
hessian_block                2      12          -0.637946          -0.290395          -0.240726          -0.109255           0.663035           0.240491          -0.042423           0.310942           0.305888
hessian_block                3       3           6.504227          -0.520958           2.262300          -0.520958           6.311002          -1.255315           2.262300          -1.255315           4.705252
hessian_block                3       4           0.277333          -0.295193          -0.045548          -0.218827           0.055859          -0.005277           0.276312          -0.178635           0.109650
hessian_block                3       5          -0.474949           0.090444          -0.178614          -0.203948           0.463743           0.154708           0.076298           0.122835           0.091524
hessian_block                3       6          -0.563643           0.484071          -0.324414          -0.118102          -1.727284           0.764086          -0.711364           0.895998          -0.689499
hessian_block                3       7           0.091596           0.132868           0.133841           0.084859          -0.105445           0.070278          -0.418863           0.192646          -0.091408
hessian_block                3       8          -2.041972          -0.130521          -0.828069          -0.661537          -0.329750          -0.416838          -1.066808          -0.151402          -0.495151
hessian_block                3       9          -0.292974           0.383439           0.105900          -0.020198          -0.144864          -0.011371          -0.593451           0.357641          -0.006083
hessian_block                3      10           0.298382           0.503074          -0.010912           1.277502          -2.235474           1.146132           0.312095           0.597314          -0.291541
hessian_block                3      11          -0.413969           0.093076          -0.081950          -0.472374           0.268909          -0.253723           0.133998           0.052592           0.080963
hessian_block                3      12          -2.557882          -0.279127          -0.958388          -0.448248          -0.300383          -0.244492          -0.708139          -0.408756          -0.385035
hessian_block                4       4           6.001342           0.223901          -1.962469           0.223901           7.086132           1.578565          -1.962469           1.578565           4.920911
hessian_block                4       5          -0.425322           0.639981           0.182386           0.072741          -2.287651          -1.103482          -0.040618          -1.354972          -0.576239
hessian_block                4       6          -0.062819           0.316456           0.036893          -0.200781          -0.541482          -0.383660           0.251308          -0.454280          -0.153859
hessian_block                4       7          -2.035665          -0.862806           0.764559          -0.173989          -0.151625           0.303126           0.744502          -0.254290          -0.733213
hessian_block                4       8          -0.436245          -0.400498          -0.214725           0.100493          -0.498583          -0.164789          -0.178073          -0.050760          -0.070347
hessian_block                4       9          -0.333224           0.595878           0.136491           0.094848          -2.334650          -1.073376           0.069213          -0.902790          -0.680878
hessian_block                4      10          -0.385446          -0.249497          -0.055382          -0.160791           0.994702           0.504080           0.096225           0.691838           0.329645
hessian_block                4      11          -1.793493          -0.092610           0.787710          -0.841629          -1.473520          -0.302093           0.923979           0.061983          -0.457650
hessian_block                4      12           0.072612           0.451609          -0.088860           0.448541           0.542902           0.229115           0.049599           0.386528           0.149801
hessian_block                5       5           5.344489          -0.300609          -1.087010          -0.300609           6.428041          -1.015423          -1.087010          -1.015423           7.495358
hessian_block                5       6           0.031872          -0.400071          -0.086062           0.084144          -0.314599           0.524688          -0.034517          -0.501970           0.494651
hessian_block                5       7          -0.284557           1.206026          -0.130035          -0.915944          -0.045062           0.330452           0.388183           0.658099          -0.772886
hessian_block                5       8          -0.129563           0.161629           0.512381           0.533190           0.040327          -0.438076           0.444636           0.565417          -0.732041
hessian_block                5       9          -1.448284          -0.468817           1.713231          -0.538935          -1.946304           2.251436           1.766626           2.357306          -3.166575
hessian_block                5      10           0.109516           0.526432           0.153326           0.172412           0.147042          -0.541121           0.185083          -0.164494          -0.840181
hessian_block                5      11           0.387609          -1.017054           0.211635           0.953292           0.234827           0.030631          -0.508029          -0.220085           1.037250
hessian_block                5      12           0.517515           0.269583          -0.418486          -0.464254          -0.724905           0.152452          -0.096543          -0.927862           0.545652
hessian_block                6       6           5.509898           0.415491           1.935608           0.415491           6.051525           1.949606           1.935608           1.949606           8.655498
hessian_block                6       7           0.034735          -0.284777          -0.173465           0.572296           0.347874           0.855849          -0.232463           0.106487          -0.117974
hessian_block                6       8           0.044690           0.418197           0.323434          -0.047733           0.199939           0.308149          -0.206461          -0.199304          -0.694620
hessian_block                6       9           0.221104           0.221198           0.136992           0.294673           0.935525           0.330430          -0.203641          -0.072564          -0.474712
hessian_block                6      10          -1.809054          -1.348107          -2.960387          -1.188176          -2.396913          -3.216792          -2.196159          -2.590850          -4.351114
hessian_block                6      11           0.145222           0.482524          -0.022109          -0.766419           0.602355           0.220387          -0.141482           0.324401           0.523379
hessian_block                6      12           0.195306           0.155914           0.130989           0.208045          -0.050075           0.237294           0.639989           0.281337           0.736978
hessian_block                7       7           5.480146           0.390997           1.253263           0.390997           6.155057          -1.443217           1.253263          -1.443217           7.704292
hessian_block                7       8          -0.034201          -0.083206           0.014575           0.079035          -0.399831           0.852615           0.362051          -0.589194           0.967571
hessian_block                7       9           0.327817           0.635990          -0.210338          -0.716203          -0.333209          -0.411515           0.472830          -0.450450           1.141968
hessian_block                7      10           0.201825          -0.707062           0.084001           0.303322          -0.533596          -0.595157          -0.289739          -0.908832           0.133440
hessian_block                7      11          -1.906340           0.587427          -1.850160           0.666485          -2.334527           2.944951          -1.666481           2.192678          -3.281858
hessian_block                7      12           0.091203          -0.004303           0.416019          -0.568680           0.600128          -0.727197          -0.601934           0.358822          -1.046036
hessian_block                8       8           5.320876          -0.149420          -1.019662          -0.149420           5.716042           1.447975          -1.019662           1.447975           7.185425
hessian_block                8       9           0.503036          -0.594482          -0.244137           0.355620           0.081334          -0.319725          -0.068748           0.515716           0.964089
hessian_block                8      10          -0.135031          -0.049279           0.377189          -0.785735          -0.443592           0.287206          -0.502333          -0.100262           0.600819
hessian_block                8      11           0.204332          -0.235981          -0.257762           0.607958           1.147921           0.685871           0.273233          -0.553919          -0.858442
hessian_block                8      12          -1.365563           1.245164           1.806486           0.895126          -1.610091          -2.146030           1.519707          -2.022495          -3.212177
hessian_block                9       9           5.156773          -0.397171          -0.812491          -0.397171           6.580411          -1.536073          -0.812491          -1.536073           7.470762
hessian_block                9      10          -0.189307           0.216459           0.194089          -0.359094          -0.342989          -0.134891          -0.451883          -0.245220           0.370838
hessian_block                9      11          -0.107214           0.939937          -0.322268          -0.676864           0.559910           0.778312           0.365123           0.241681          -0.874004
hessian_block                9      12          -0.104903          -0.437220           0.652458           0.263447          -0.147042          -0.596268           0.077465           0.713398          -0.963938
hessian_block               10      10           5.722906           0.779015           1.848795           0.779015           7.329391           2.538834           1.848795           2.538834           8.353510
hessian_block               10      11          -0.069804          -0.194036           0.287840           0.382432          -1.445260          -0.232738          -0.083802          -0.554034          -0.732888
hessian_block               10      12          -0.235474          -0.080580          -0.162703          -0.531500          -0.146959           0.003440          -0.550619           0.066193          -0.476402
hessian_block               11      11           5.545059           0.263341           1.011745           0.263341           7.967647          -1.336767           1.011745          -1.336767           7.474556
hessian_block               11      12           0.054889           0.015808          -0.267785           0.434729          -0.949377           0.533822           0.616536          -0.866904           0.565898
hessian_block               12      12           5.527030           0.015658          -1.133547           0.015658           5.746794           1.478866          -1.133547           1.478866           7.438910
hessian_block_lv             1       1          22.761486          -2.885607           4.607464          -2.885607          22.867376           2.637811           4.607464           2.637811           1.840673
hessian_block_lv_atom        1       1           0.295125           0.221670           0.048280          -0.668580          -0.168676          -0.206529          -0.401289           0.138216          -0.008548
hessian_block_lv_atom        1       2          -0.803693          -0.455447          -0.215186          -0.081469           0.148268           0.022781           0.102702          -0.277506          -0.038692
hessian_block_lv_atom        1       3          -0.921673          -0.434738          -0.255057           0.355589           0.395492           0.086380          -0.435787           0.026474          -0.035911
hessian_block_lv_atom        1       4          -0.008031           0.075545           0.001469           0.903240           0.636969           0.284194           0.187532          -0.124003          -0.005751
hessian_block_lv_atom        1       5           0.355134           0.244925           0.390331          -0.232323           0.399210           0.248160          -2.517287          -2.117937          -1.473157
hessian_block_lv_atom        1       6           0.848202          -0.872759          -0.266201          -0.193912          -0.758081          -0.321637          -1.836217          -2.600687          -1.478917
hessian_block_lv_atom        1       7          -0.942872          -0.311044           0.070524          -0.737577          -1.047341          -0.531202           2.069974           1.805996           1.347244
hessian_block_lv_atom        1       8           0.467740          -0.048081          -0.289587           0.075887           0.103003           0.277672           1.835700           1.968086           1.375742
hessian_block_lv_atom        1       9           0.314910           0.089234          -0.228900          -0.179251          -0.820770          -0.384539           2.389712           2.050277           1.449309
hessian_block_lv_atom        1      10          -0.949837           0.848027           0.319547           0.331265           0.568141           0.397086           2.292107           2.841127           1.556084
hessian_block_lv_atom        1      11           1.092188           0.363923          -0.018270           0.313703           0.693546           0.359080          -2.310786          -1.950957          -1.419084
hessian_block_lv_atom        1      12           0.252807           0.278747           0.443051           0.113431          -0.149759          -0.231444          -1.376363          -1.759087          -1.268318
