# 
# This is the geometry file that corresponds to the current relaxation step.
# If you do not want this file to be written, set the "write_restart_geometry" flag to .false.
#  aims_uuid : 56D1ED14-7A82-4D82-A1D0-AACA6CBA0E66                                
# 
lattice_vector      5.83782155      0.00000000      0.00000000
lattice_vector      0.00000000      5.95035090      0.00000000
lattice_vector      0.00000000      0.00000000      7.51792156
atom_frac       0.50114834      0.00041084      0.00028464 Pd
atom_frac       0.00040956      0.00047398      0.50138258 Pd
atom_frac       0.00051734      0.50114426      0.00030986 Pd
atom_frac       0.50125777      0.50120676      0.50135851 Pd
atom_frac       0.61288511      0.11862261      0.40370157 Se
atom_frac       0.89029329      0.88374943      0.90434219 Se
atom_frac       0.11215341      0.38305584      0.59876857 Se
atom_frac       0.38943168      0.61939123      0.09791210 Se
atom_frac       0.38949325      0.88376348      0.59877432 Se
atom_frac       0.11214650      0.11870357      0.09794008 Se
atom_frac       0.89022596      0.61930344      0.40371314 Se
atom_frac       0.61289418      0.38303093      0.90436881 Se
# 
# What follows is the current estimated Hessian matrix constructed by the BFGS algorithm.
# This is NOT the true Hessian matrix of the system.
# If you do not want this information here, switch it off using the "hessian_to_restart_geometry" keyword.
# 
trust_radius             0.0122098363
hessian_block                1       1           6.347089          -1.000872          -2.573213          -1.000872           8.981925          -0.175310          -2.573213          -0.175310           5.138692
hessian_block                1       2          -1.042713           3.032535           0.959931          -0.507603           2.545443           0.744627          -0.533779           1.438412           0.498888
hessian_block                1       3          -1.472275           4.245502           1.374563           0.024108          -0.469513          -0.041061          -1.039822           2.399553           0.860150
hessian_block                1       4           0.519060           0.232223          -0.056090           0.430895          -1.066282          -0.337089           0.057501           0.080533           0.024748
hessian_block                1       5           0.569069          -2.131861          -0.804517          -1.672150           3.456615           1.413576          -0.099997          -0.303113           0.027595
hessian_block                1       6          -0.033245          -4.291103          -0.897944           2.025965          -4.532717          -1.714813           4.112902          -7.676526          -3.163506
hessian_block                1       7          -1.147757           2.244291           0.890567           0.516284          -0.747312          -0.231577           0.027770           0.129752          -0.011253
hessian_block                1       8           0.409122          -2.237156          -0.289404          -0.019423          -2.813307           0.405211          -0.903823           3.181765           0.382194
hessian_block                1       9          -0.090909          -0.056926           0.160150           0.712472          -3.153182          -1.121171          -0.209897           0.271345           0.133782
hessian_block                1      10          -4.131619           5.526105           2.693581          -1.481128           3.816968           1.179231          -1.172024           4.726634           1.295226
hessian_block                1      11           1.193811          -3.317042          -1.153263           0.509886          -0.993492          -0.457696           0.237384          -0.255973           0.032336
hessian_block                1      12           0.446277          -2.245696          -0.304361           0.461568          -3.378125           0.336071           2.097000          -3.817071          -2.116989
hessian_block                2       2           8.519454           2.452844           3.620740           2.452844           8.765922           2.791251           3.620740           2.791251           5.631948
hessian_block                2       3           4.384202           3.703096           2.206611          -0.677890          -0.550162          -0.317917           2.344590           1.919201           1.218635
hessian_block                2       4           0.177974           0.523077           0.085638          -1.179393          -0.203099          -0.200530           0.115702           0.427309           0.176491
hessian_block                2       5          -3.642056          -1.132198          -1.679543           3.658702           2.335067           1.817040          -1.097374          -0.485615          -0.818426
hessian_block                2       6          -4.714777          -3.954836          -2.322597          -4.233246          -4.239844          -2.463499          -7.331135          -6.442286          -4.007696
hessian_block                2       7           1.914372           1.056717           0.778346          -1.440957          -2.623444          -1.426518          -0.163986          -0.925984          -0.437163
hessian_block                2       8          -1.792457          -1.769134          -1.016333          -0.737982          -0.946702          -0.542400           2.319900           2.049950           1.374121
hessian_block                2       9          -2.107983           0.265551          -1.026402          -2.131077          -3.300310          -1.323532          -0.706409           0.451788          -0.258788
hessian_block                2      10           5.020957           3.836691           2.488774           4.133320           3.969407           2.558125           5.041115           4.707110           2.893461
hessian_block                2      11          -3.293323          -3.156604          -1.778538          -1.329322          -3.316498          -1.657437          -0.601024          -1.326950          -0.827723
hessian_block                2      12          -1.857740          -1.317600          -0.822916          -1.547537          -0.788758          -0.672993          -4.502049          -3.910401          -2.341883
hessian_block                3       3          11.475550          -0.815768           5.446303          -0.815768           6.229317          -1.461682           5.446303          -1.461682           6.729978
hessian_block                3       4           0.243376          -0.223027          -0.079398          -1.394729           0.308140          -0.714587           0.230576          -0.106986           0.092665
hessian_block                3       5          -2.704962           0.210675          -1.632751           4.464212          -0.043569           3.020892          -0.451464           0.131876          -0.161441
hessian_block                3       6          -6.808182           1.057578          -4.204602          -5.631582          -1.354290          -2.711374         -10.765529           1.611417          -6.869223
hessian_block                3       7           2.908521          -0.127904           1.910118          -1.310728           0.118058          -0.767820          -0.009835          -0.029822           0.008741
hessian_block                3       8          -4.293190          -0.127717          -2.174297          -1.776754          -0.306788          -1.190508           2.486596          -0.530321           1.607120
hessian_block                3       9          -0.419889           0.374866           0.057722          -3.983876           0.188342          -2.460660           0.175014           0.163277           0.318802
hessian_block                3      10           6.927507          -0.007889           4.108633           6.549187          -2.424183           4.489685           7.011227           0.195146           3.831006
hessian_block                3      11          -4.406806           0.445774          -2.592617          -1.438549          -0.014878          -0.973528          -0.503043           0.129156          -0.247939
hessian_block                3      12          -4.267939          -0.132805          -2.143878          -2.610011          -0.033448          -1.549172          -7.201017           0.256917          -4.286631
hessian_block                4       4           5.891093           0.098189          -1.984128           0.098189           6.940008           1.443690          -1.984128           1.443690           4.870370
hessian_block                4       5          -0.405678           1.197940           0.221720           0.177262          -2.891605          -0.931012          -0.002355          -1.145045          -0.640338
hessian_block                4       6          -0.053483           1.416267          -0.092080          -0.196279           0.706740          -0.379474           0.371602           1.727612          -0.331057
hessian_block                4       7          -1.944977          -1.332586           0.781119          -0.271130          -0.054138           0.203475           0.841124           0.051596          -0.473178
hessian_block                4       8          -0.184910           0.373375          -0.187293           0.110301          -0.139184          -0.090023          -0.177361          -0.532434           0.146094
hessian_block                4       9          -0.279371           0.647743           0.125210           0.072260          -1.625820          -1.134174           0.100961          -0.794118          -0.443699
hessian_block                4      10          -0.443983          -1.630539           0.015685          -0.301564          -0.567617           0.395734          -0.024905          -0.970250           0.396680
hessian_block                4      11          -1.871547           0.573789           0.746685          -0.601481          -0.543278          -0.022086           0.885633           0.185304          -0.545830
hessian_block                4      12          -0.081643           0.799049          -0.030697           0.380169           0.783160           0.113011           0.039279           1.285851          -0.171079
hessian_block                5       5           6.217700          -2.576435          -0.897918          -2.576435           9.992928          -1.640600          -0.897918          -1.640600           7.666663
hessian_block                5       6           3.049989          -5.492158           0.483109           2.668134          -5.245295           1.159683           4.554427          -9.524857           1.677802
hessian_block                5       7          -1.667350           3.434350          -0.415764          -0.151173          -0.914635           0.488617           0.188618           0.576634          -1.050460
hessian_block                5       8           1.018053          -1.972413           0.669265           0.923375          -1.272813          -0.329582          -1.191088           3.421128          -1.300225
hessian_block                5       9          -1.268535          -0.449246           1.712519           1.416138          -5.146400           2.750006           1.392161           2.725335          -3.487497
hessian_block                5      10          -3.041086           6.197041          -0.381374          -2.268331           5.319302          -1.098403          -2.808517           6.105587          -1.556994
hessian_block                5      11           2.332283          -4.241015           0.701736           1.214380          -1.669048           0.040455          -0.282565          -0.839519           1.217339
hessian_block                5      12           1.108485          -1.528150          -0.220380           0.629356          -2.273525           0.431720           2.939974          -6.144203           1.527846
hessian_block                6       6          12.460952           7.037045          13.672033           7.037045          12.026073          12.963813          13.672033          12.963813          28.287583
hessian_block                6       7          -3.214801          -3.235273          -5.688518           1.875331           1.696599           3.361828          -0.106845          -0.299642          -0.766495
hessian_block                6       8           2.585850           2.825778           4.452338           1.684186           1.548690           2.800561          -3.981539          -4.054386          -7.542155
hessian_block                6       9           0.166954           0.259894           0.197022           4.760031           5.104990           8.063032          -0.559479          -0.881017          -1.878800
hessian_block                6      10          -9.407011          -8.435152         -15.467476          -7.833559          -8.190033         -13.916475         -10.184682          -9.986776         -17.475608
hessian_block                6      11           4.753761           4.723520           7.881020           1.328851           1.932726           2.733060           0.526262           1.066921           1.903576
hessian_block                6      12           2.779904           2.191196           4.011312           2.412369           2.193389           4.298824           7.668362           7.300565          13.267441
hessian_block                7       7           6.801224          -0.165286           1.223099          -0.165286           6.185411          -1.281152           1.223099          -1.281152           7.525617
hessian_block                7       8          -1.376844           0.585470          -0.265079          -0.685471           0.081411           0.620081           2.127243          -1.354144           1.042696
hessian_block                7       9           0.309766           0.571510          -0.188605          -2.633789           0.523148          -0.530968           0.699884          -0.441173           1.124511
hessian_block                7      10           3.764500          -2.198396           0.123557           3.336219          -2.026002           0.170089           3.502004          -2.643528           0.717919
hessian_block                7      11          -3.848304           1.450421          -1.905832          -0.323802          -1.474676           2.123743          -1.952843           2.302652          -3.441757
hessian_block                7      12          -0.932438           0.538655           0.236014          -1.567468           0.882604          -0.604328          -3.855255           1.789341          -1.137314
hessian_block                8       8           5.595714           0.514093          -2.498229           0.514093           5.828785           0.460989          -2.498229           0.460989           9.456783
hessian_block                8       9           0.293227          -0.448040          -0.242123           1.985111           1.187728          -2.894919          -0.365591           0.203522           1.393222
hessian_block                8      10          -2.765571          -1.811223           4.514196          -2.842501          -1.647770           4.292431          -3.224831          -1.684904           5.296794
hessian_block                8      11           2.039843           0.832489          -2.835940           0.788898           1.080746          -0.663320           0.654777          -0.421230          -1.428690
hessian_block                8      12           0.037074           1.414451           0.382167           1.876195          -0.953772          -3.376738           4.244675          -0.231718          -7.326090
hessian_block                9       9           5.011346          -0.453000          -0.753741          -0.453000           9.306976          -1.984117          -0.753741          -1.984117           7.598857
hessian_block                9      10          -0.154489          -4.652649           0.699530          -0.358148          -4.563593           0.910725          -0.525399          -5.547421           1.412759
hessian_block                9      11          -0.098905           3.720881          -0.730925          -0.570907           1.848586           0.056610           0.418002           0.800751          -1.132290
hessian_block                9      12           0.204698           1.187500           0.258493           0.216705           1.276561          -0.682175           0.065645           5.383172          -1.678996
hessian_block               10      10          13.885932           7.700747          10.246057           7.700747          12.602857           9.545026          10.246057           9.545026          17.005761
hessian_block               10      11          -5.137766          -4.530218          -5.167982          -1.487381          -2.105276          -1.602672          -0.761965          -1.320983          -1.609651
hessian_block               10      12          -2.951459          -2.104024          -2.692062          -3.037354          -2.537039          -2.843953          -8.279198          -7.205186          -9.105490
hessian_block               11      11           8.346293           1.607682           1.531695           1.607682           6.808016          -1.115423           1.531695          -1.115423           7.605492
hessian_block               11      12           1.556571           0.301745          -0.152313           1.890325           0.094097           0.795295           5.303961           1.538295           1.577000
hessian_block               12      12           5.524119           0.895682           1.478622           0.895682           6.381880           3.754441           1.478622           3.754441          14.894049
hessian_block_lv             1       1          26.427536          -1.827175           6.707912          -1.827175          24.652210           3.536317           6.707912           3.536317           3.176935
hessian_block_lv_atom        1       1          -1.182747          -0.602227          -0.784799           2.949553           1.999125           2.046022           1.371612           0.881112           0.821469
hessian_block_lv_atom        1       2           2.973762           1.733023           1.962894           3.720011           2.218897           1.903566           2.013923           1.017411           1.055963
hessian_block_lv_atom        1       3           4.406171           2.604197           2.805323          -0.482172           0.022641          -0.193484           3.050396           1.835657           1.840426
hessian_block_lv_atom        1       4           0.124977           0.082374          -0.013660           0.224730           0.176360          -0.347686           0.356682           0.102158           0.047554
hessian_block_lv_atom        1       5          -2.097068          -1.240057          -1.006740           3.880781           2.894720           2.864258          -2.280381          -2.874329          -1.680855
hessian_block_lv_atom        1       6          -4.933838          -3.849930          -3.665441          -5.559205          -3.946002          -3.577932         -10.599119          -8.523384          -6.958184
hessian_block_lv_atom        1       7           1.997897           1.151121           1.783786          -1.426540          -1.448735          -1.147285           0.913190           2.189215           1.277720
hessian_block_lv_atom        1       8          -2.100392          -1.156093          -1.517360          -1.429146          -0.843534          -0.504173           4.446390           4.358952           3.186275
hessian_block_lv_atom        1       9           0.155203           0.227721          -0.253227          -4.332876          -3.211964          -2.685970           1.693497           2.749468           1.596978
hessian_block_lv_atom        1      10           5.242100           3.941971           3.915964           5.800528           3.752330           3.566054           7.830238           6.787438           5.184270
hessian_block_lv_atom        1      11          -3.146104          -1.943432          -2.468101          -2.044186          -0.599345          -0.558097          -1.962274          -2.627589          -1.657481
hessian_block_lv_atom        1      12          -1.439962          -0.948666          -0.758640          -1.301475          -1.014492          -1.365271          -6.834154          -5.896110          -4.714135
symmetry_n_params 39 3 36
symmetry_params a1 b2 c3 x0 x1 x2 x3 x4 x5 x6 x7 x8 x9 x10 x11 x12 x13 x14 x15 x16 x17 x18 x19 x20 x21 x22 x23 x24 x25 x26 x27 x28 x29 x30 x31 x32 x33 x34 x35
symmetry_lv a1 , 0 , 0 
symmetry_lv 0 , b2 , 0 
symmetry_lv 0 , 0 , c3
symmetry_frac x0 , x1 , x2
symmetry_frac x3 , x4 , x5
symmetry_frac x6 , x7 , x8
symmetry_frac x9 , x10 , x11
symmetry_frac x12 , x13 , x14
symmetry_frac x15 , x16 , x17
symmetry_frac x18 , x19 , x20
symmetry_frac x21 , x22 , x23
symmetry_frac x24 , x25 , x26
symmetry_frac x27 , x28 , x29
symmetry_frac x30 , x31 , x32
symmetry_frac x33 , x34 , x35
