#=======================================================
# FHI-aims file: ./geometry.in
# Created using the Atomic Simulation Environment (ASE)
# Thu Mar 19 17:13:23 2020
#=======================================================
lattice_vector 1.2300000000000000 -2.1304224899999999 0.0000000000000000 
lattice_vector 1.2300000000000000 2.1304224899999999 0.0000000000000000 
lattice_vector 0.0000000000000000 0.0000000000000000 6.7100000000000000 
atom_frac -0.0000000000000000 0.0000000000000000 0.2500000000000000 C
atom_frac -0.0000000000000000 0.0000000000000000 -0.2500000000000000 C
atom_frac 0.3333333333333333 -0.3333333333333333 0.2500000000000000 C
atom_frac -0.3333333333333333 0.3333333333333333 -0.2500000000000000 C
