#=======================================================
# FHI-aims file: geometry.in.primitive
# Created using the Atomic Simulation Environment (ASE)
# Thu Dec  3 13:23:01 2020

# Additional information:
#  Number of atoms:     2
#=======================================================
lattice_vector 0.0000199852700000 2.7167850593559999 2.7167850594199998 
lattice_vector 2.7167849697860000 0.0000199855150000 2.7167850591749998 
lattice_vector 2.7167849698480002 2.7167850591730001 0.0000199854530000 
atom 0.0000008901415683 0.0000008901606150 0.0000008900193432 Si
atom 1.3583965910871501 1.3583966358531001 1.3583966359926600 Si
