# 
# This is the geometry file that corresponds to the current relaxation step.
# If you do not want this file to be written, set the "write_restart_geometry" flag to .false.
#  aims_uuid : 6F88DC77-E93B-4C34-A39C-C86DDB5D69ED                                
# 
lattice_vector      3.28797780      0.00000000      0.00000000
lattice_vector     -1.64398890      2.84747230      0.00000000
lattice_vector      0.00000000      0.00000000     13.22998150
atom_frac       0.32957421      0.66490797      0.25277730 W
atom_frac       0.67593639      0.34056997      0.75272678 W
atom_frac       0.34251489      0.67382233      0.88028963 Se
atom_frac       0.66304522      0.33163753      0.38033968 Se
atom_frac       0.66295825      0.33172919      0.12521581 Se
atom_frac       0.34248743      0.67384940      0.62516718 Se
# 
# What follows is the current estimated Hessian matrix constructed by the BFGS algorithm.
# This is NOT the true Hessian matrix of the system.
# If you do not want this information here, switch it off using the "hessian_to_restart_geometry" keyword.
# 
trust_radius             0.0075204353
hessian_block                1       1         489.013515         165.952023           3.337972         165.952023          72.196598           1.893826           3.337972           1.893826         246.984166
hessian_block                1       2        -474.721620        -172.897394          -2.658367        -172.123706         -61.985145          -1.809300           9.733129           1.124075          22.164186
hessian_block                1       3          -1.365579           0.400599          -0.383643           6.665973           2.275954           0.494784          42.987809          19.928703          -2.661177
hessian_block                1       4          -5.050316           3.308431           0.061047          -4.105429          -7.398414          -0.622837          32.551075          11.052668        -115.181779
hessian_block                1       5          -5.489555           2.614727           0.033770          -3.658169          -6.702772          -0.551063         -45.040652         -13.318343        -116.616775
hessian_block                1       6          -1.527213           0.191998          -0.390779           6.839693           2.473012           0.594589         -43.569332         -20.680929         -20.240630
hessian_block                2       2         481.719985         164.794637          -7.785590         164.794637          70.353334          -1.447974          -7.785590          -1.447974         225.212008
hessian_block                2       3          -3.033185           2.933958           0.780603          -3.846134          -6.197997          -0.639650         -46.368394         -12.293116        -100.665374
hessian_block                2       4           0.279019           0.167338          -1.263693           7.341472           2.796551           0.245225         -34.546799          -6.916416          -4.164879
hessian_block                2       5          -0.217149           0.690345          -1.988922           7.869120           2.265804           1.028561          45.996003           8.404813         -10.146120
hessian_block                2       6          -3.167817           3.107812           0.524474          -3.691317          -6.373315          -0.310236          45.363147          14.061993        -117.951831
hessian_block                3       3           2.989943          -1.824030           0.547339          -1.824030           3.144818          -1.310914           0.547339          -1.310914         123.408843
hessian_block                3       4           0.134384          -0.164436           1.701913          -0.193788          -0.037699          -3.045926           1.684196          -1.927065           0.597392
hessian_block                3       5           0.450080          -0.140122           0.840129          -0.519048          -0.063371          -2.197060          -2.478299           2.665581           8.845732
hessian_block                3       6           1.683588          -1.120867           0.291204          -1.227308           1.737529          -1.081687          -0.150197           0.717264         -15.077427
hessian_block                4       4           3.854029          -2.614170           0.273176          -2.614170           4.104777          -1.071503           0.273176          -1.071503         142.915613
hessian_block                4       5           1.714898          -0.942718          -1.212464          -1.166427           1.710865           0.414991           0.850681           1.001439         -14.324248
hessian_block                4       6          -0.072782           0.085017           1.250817           0.039649          -0.316848          -1.552674          -1.623124           3.493602           4.605891
hessian_block                5       5           3.762741          -2.309708           2.639828          -2.309708           3.574606          -0.854873           2.639828          -0.854873         141.265914
hessian_block                5       6           0.638218          -0.645383          -1.967562          -0.342140           0.074100           2.101383          -0.312340           2.159445           5.423488
hessian_block                6       6           3.305239          -2.048193           0.291846          -2.048193           3.264755           0.248625           0.291846           0.248625         157.688499
hessian_block_lv             1       1          54.361364           4.463498           0.000000           4.463498           1.683439           0.000000           0.000000           0.000000           0.000000
hessian_block_lv_atom        1       1          11.114407           6.619895           0.000000           6.557783           2.758455           0.000000           7.971148           1.533108           0.000000
hessian_block_lv_atom        1       2         -12.914978          -7.260439           0.000000          -3.144129          -1.722646           0.000000           1.679617           1.401360           0.000000
hessian_block_lv_atom        1       3           0.351430           0.236737           0.000000          -0.269240          -0.214957           0.000000          15.089300           6.447812           0.000000
hessian_block_lv_atom        1       4           0.930248           0.220286           0.000000          -1.831658          -0.440136           0.000000          18.972255           7.245085           0.000000
hessian_block_lv_atom        1       5           0.335394           0.010893           0.000000          -1.218417          -0.228778           0.000000         -21.681258          -7.004404           0.000000
hessian_block_lv_atom        1       6           0.183498           0.172628           0.000000          -0.094338          -0.151939           0.000000         -22.031062          -9.622961           0.000000
