# 
# This is the geometry file that corresponds to the current relaxation step.
# If you do not want this file to be written, set the "write_restart_geometry" flag to .false.
#  aims_uuid : 45CEC5D9-D0A4-4B47-A66A-19FA138B0EB7                                
# 
lattice_vector      5.84519870      0.00000000      0.00000000
lattice_vector      0.00000000      5.95455123      0.00000000
lattice_vector      0.00000000      0.00000000      7.50642413
atom_frac       0.50232790      0.00241089      0.00215921 Pd
atom_frac       0.00233103      0.00237901      0.50265062 Pd
atom_frac       0.00250821      0.50238356      0.00216575 Pd
atom_frac       0.50246006      0.50240306      0.50263025 Pd
atom_frac       0.61451013      0.12077379      0.40567859 Se
atom_frac       0.89025082      0.88402778      0.90551998 Se
atom_frac       0.11454686      0.38406059      0.59931202 Se
atom_frac       0.39035628      0.62078584      0.09912158 Se
atom_frac       0.39032567      0.88409637      0.59932671 Se
atom_frac       0.11451530      0.12075535      0.09912613 Se
atom_frac       0.89027834      0.62076199      0.40568341 Se
atom_frac       0.61448168      0.38405400      0.90551802 Se
# 
# What follows is the current estimated Hessian matrix constructed by the BFGS algorithm.
# This is NOT the true Hessian matrix of the system.
# If you do not want this information here, switch it off using the "hessian_to_restart_geometry" keyword.
# 
trust_radius             0.0976786272
hessian_block                1       1           5.970555           0.042112          -2.153497           0.042112           6.442948          -1.222570          -2.153497          -1.222570           4.686884
hessian_block                1       2          -0.033214           0.441933          -0.085865           0.314689           0.176038          -0.243515          -0.060444           0.039667          -0.023518
hessian_block                1       3          -0.066579           0.483106          -0.140356          -0.066924          -0.091334           0.108020          -0.137835           0.003813          -0.102307
hessian_block                1       4           0.539128           0.106627          -0.067164           0.116338          -0.480268          -0.132783           0.045720           0.039287           0.008168
hessian_block                1       5          -0.057201          -0.403736          -0.103396          -0.353663           0.319609           0.231586          -0.254167           0.150529           0.099692
hessian_block                1       6          -1.804917           0.136130           0.821025           0.477561          -0.474791          -0.114147           1.258297          -0.209939          -0.439713
hessian_block                1       7          -0.389767           0.336872           0.120878           0.134283           0.073938           0.113400           0.134855           0.127825           0.156317
hessian_block                1       8          -0.274390          -0.250886           0.348127          -0.341931          -1.891354           0.834458           0.113989           0.739673          -0.429310
hessian_block                1       9          -0.143430           0.087759           0.187548          -0.418100          -0.375481          -0.047174           0.021886          -0.106756           0.161151
hessian_block                1      10          -2.263961           0.653436           0.843375           0.016475          -0.380394          -0.454901           0.717650          -0.382416          -0.563909
hessian_block                1      11           0.085723          -0.567498          -0.058065           0.212401           0.300568           0.081577           0.079492           0.162149           0.108807
hessian_block                1      12           0.003966          -1.065858           0.287386          -0.133238          -1.972456           0.846047           0.234052           0.658741          -0.560399
hessian_block                2       2           6.004656           0.291386           2.380083           0.291386           7.301626           2.018432           2.380083           2.018432           5.170109
hessian_block                2       3           0.803429           0.827721           0.577375          -0.411989          -0.484754          -0.317793           0.067299           0.033248           0.173221
hessian_block                2       4           0.159509           0.629279           0.167086          -0.472244           0.754485           0.418709           0.107907           0.560081           0.243147
hessian_block                2       5          -2.005048           0.134804          -0.971180           0.467818          -0.666413          -0.022689          -0.660196          -0.235994          -0.567500
hessian_block                2       6          -0.373704          -0.047743          -0.049072          -0.309508          -0.987295          -0.564621          -0.166230          -0.378097          -0.350604
hessian_block                2       7          -0.025898          -0.672123          -0.249664          -0.512520          -1.659409          -0.825646          -0.351816          -1.451302          -0.953916
hessian_block                2       8          -0.126897          -0.589857          -0.354727           0.118774          -0.369350          -0.260704          -0.140805          -0.290463          -0.127595
hessian_block                2       9          -2.025486           0.323340          -1.004478           0.625017          -0.890393           0.116464          -1.193410          -0.200164          -0.834190
hessian_block                2      10           0.337985          -0.172892           0.156494           0.255561           1.080944           0.917447           0.192391           0.785928           0.533283
hessian_block                2      11          -0.542702          -0.699226          -0.322417          -0.401871          -3.229505          -1.736387          -0.120380          -0.926022          -0.471964
hessian_block                2      12          -0.606721          -0.339379          -0.269055          -0.092358           0.621051           0.217120          -0.028976           0.327866           0.311390
hessian_block                3       3           6.500524          -0.514673           2.255735          -0.514673           6.303834          -1.255754           2.255735          -1.255754           4.706206
hessian_block                3       4           0.283103          -0.297156          -0.036696          -0.197931           0.088678          -0.004699           0.283333          -0.160337           0.104771
hessian_block                3       5          -0.478924           0.096919          -0.180833          -0.222030           0.453500           0.144902           0.067753           0.098753           0.103435
hessian_block                3       6          -0.570779           0.485025          -0.332149          -0.125049          -1.752477           0.776033          -0.707401           0.864512          -0.679458
hessian_block                3       7           0.090971           0.136278           0.127250           0.083695          -0.123510           0.082463          -0.426203           0.186791          -0.101009
hessian_block                3       8          -2.039209          -0.124199          -0.847446          -0.658343          -0.336675          -0.410053          -1.074219          -0.151325          -0.501775
hessian_block                3       9          -0.288034           0.387108           0.101806          -0.018471          -0.161929          -0.004458          -0.596744           0.358964          -0.015396
hessian_block                3      10           0.299037           0.507386          -0.003750           1.282915          -2.199561           1.135684           0.322138           0.637794          -0.302474
hessian_block                3      11          -0.409780           0.092807          -0.075523          -0.489947           0.244874          -0.259184           0.128517           0.029568           0.097022
hessian_block                3      12          -2.557848          -0.290583          -0.937858          -0.450995          -0.293622          -0.241995          -0.689926          -0.399194          -0.380372
hessian_block                4       4           6.006792           0.233499          -1.964087           0.233499           7.067140           1.563003          -1.964087           1.563003           4.914784
hessian_block                4       5          -0.431597           0.621115           0.172601           0.078404          -2.233511          -1.079796          -0.048224          -1.380264          -0.586849
hessian_block                4       6          -0.059923           0.315280           0.036852          -0.204813          -0.518845          -0.372943           0.233952          -0.412460          -0.127919
hessian_block                4       7          -2.048967          -0.869155           0.769816          -0.174231          -0.178041           0.291043           0.737885          -0.235956          -0.716179
hessian_block                4       8          -0.450025          -0.368880          -0.185506           0.087833          -0.519397          -0.170006          -0.175332          -0.050139          -0.067508
hessian_block                4       9          -0.338756           0.588964           0.140911           0.084889          -2.348627          -1.074544           0.072838          -0.864410          -0.660978
hessian_block                4      10          -0.381690          -0.263433          -0.065841          -0.146438           0.957203           0.478646           0.109227           0.654227           0.307440
hessian_block                4      11          -1.781650          -0.094802           0.780423          -0.856881          -1.447281          -0.280865           0.926743           0.053664          -0.467552
hessian_block                4      12           0.069987           0.391250          -0.122126           0.458990           0.505490           0.206431           0.043773           0.391108           0.150537
hessian_block                5       5           5.353065          -0.280873          -1.094790          -0.280873           6.375152          -1.030284          -1.094790          -1.030284           7.541372
hessian_block                5       6           0.038747          -0.405815          -0.088246           0.093365          -0.343808           0.556379          -0.031961          -0.541522           0.513522
hessian_block                5       7          -0.286383           1.191504          -0.115462          -0.928361          -0.044424           0.361113           0.412367           0.641945          -0.785340
hessian_block                5       8          -0.119932           0.138710           0.498334           0.537126           0.047266          -0.423281           0.457174           0.562657          -0.735363
hessian_block                5       9          -1.452861          -0.463649           1.715847          -0.539127          -1.946182           2.265599           1.788164           2.344096          -3.199393
hessian_block                5      10           0.102145           0.533002           0.167843           0.155740           0.189348          -0.570772           0.180423          -0.106616          -0.881039
hessian_block                5      11           0.389696          -0.995295           0.202918           0.988252           0.196047           0.035994          -0.518999          -0.234927           1.070491
hessian_block                5      12           0.514203           0.311890          -0.391610          -0.475222          -0.699554           0.172227          -0.109570          -0.909354           0.528835
hessian_block                6       6           5.514399           0.433667           1.945467           0.433667           6.032445           1.929386           1.945467           1.929386           8.630084
hessian_block                6       7           0.027055          -0.301996          -0.164703           0.579635           0.375014           0.853666          -0.222924           0.066552          -0.159157
hessian_block                6       8           0.036047           0.390349           0.330928          -0.041556           0.178499           0.289570          -0.207719          -0.205511          -0.714220
hessian_block                6       9           0.214101           0.217871           0.146005           0.307373           0.929123           0.321186          -0.190883          -0.114411          -0.520212
hessian_block                6      10          -1.815863          -1.359783          -2.951600          -1.200175          -2.360248          -3.171574          -2.210804          -2.586860          -4.333846
hessian_block                6      11           0.150716           0.496255          -0.018820          -0.767680           0.560643           0.170549          -0.140291           0.358353           0.530691
hessian_block                6      12           0.210033           0.192081           0.126065           0.205859           0.008767           0.284721           0.638743           0.271790           0.752696
hessian_block                7       7           5.498449           0.392063           1.249688           0.392063           6.187100          -1.447615           1.249688          -1.447615           7.707092
hessian_block                7       8          -0.005962          -0.117729           0.010554           0.086055          -0.392483           0.854637           0.355780          -0.588266           0.976005
hessian_block                7       9           0.346361           0.629473          -0.206320          -0.703712          -0.317468          -0.412477           0.453032          -0.462738           1.141087
hessian_block                7      10           0.199578          -0.692125           0.075292           0.303860          -0.545454          -0.550903          -0.287568          -0.934392           0.184336
hessian_block                7      11          -1.920607           0.586826          -1.848140           0.674878          -2.340748           2.937226          -1.670574           2.222750          -3.301343
hessian_block                7      12           0.081076           0.018991           0.434764          -0.574524           0.612507          -0.716719          -0.588473           0.334222          -1.046031
hessian_block                8       8           5.373457          -0.148774          -1.040732          -0.148774           5.715013           1.458474          -1.040732           1.458474           7.188431
hessian_block                8       9           0.523458          -0.590500          -0.248786           0.353960           0.083536          -0.313653          -0.079080           0.504141           0.971036
hessian_block                8      10          -0.135334          -0.053255           0.384102          -0.766727          -0.428325           0.298956          -0.485034          -0.086994           0.619675
hessian_block                8      11           0.186559          -0.245959          -0.253566           0.602682           1.162412           0.690548           0.240368          -0.550916          -0.862301
hessian_block                8      12          -1.401861           1.250531           1.830116           0.881349          -1.602118          -2.150951           1.564214          -2.039328          -3.215210
hessian_block                9       9           5.165679          -0.396733          -0.814798          -0.396733           6.582822          -1.546980          -0.814798          -1.546980           7.482773
hessian_block                9      10          -0.185614           0.210707           0.181224          -0.364003          -0.331001          -0.081217          -0.459699          -0.248293           0.431534
hessian_block                9      11          -0.125602           0.926623          -0.305492          -0.669182           0.556149           0.753075           0.359534           0.248516          -0.899001
hessian_block                9      12          -0.123907          -0.432426           0.663263           0.249550          -0.133521          -0.583598           0.082429           0.695814          -0.956548
hessian_block               10      10           5.714335           0.773261           1.841702           0.773261           7.270208           2.506478           1.841702           2.506478           8.352878
hessian_block               10      11          -0.074471          -0.198508           0.273994           0.389209          -1.398809          -0.175312          -0.066847          -0.573474          -0.763086
hessian_block               10      12          -0.230236          -0.111960          -0.194418          -0.525513          -0.206887          -0.063547          -0.561994           0.065627          -0.482925
hessian_block               11      11           5.551307           0.261703           1.020421           0.261703           7.964597          -1.351763           1.020421          -1.351763           7.509792
hessian_block               11      12           0.056717           0.056436          -0.237989           0.437075          -0.921921           0.562101           0.604268          -0.865458           0.550306
hessian_block               12      12           5.550501           0.019024          -1.188539           0.019024           5.729290           1.468163          -1.188539           1.468163           7.449585
hessian_block_lv             1       1          22.879761          -2.870277           4.590472          -2.870277          23.019365           2.683974           4.590472           2.683974           1.847139
hessian_block_lv_atom        1       1           0.324330           0.262538           0.059820          -0.651499          -0.157173          -0.201829          -0.388297           0.122196          -0.013054
hessian_block_lv_atom        1       2          -0.816233          -0.471691          -0.213026          -0.080968           0.124725           0.012731           0.085113          -0.287174          -0.040646
hessian_block_lv_atom        1       3          -0.926955          -0.458438          -0.255673           0.371835           0.428840           0.093814          -0.434211           0.004843          -0.038872
hessian_block_lv_atom        1       4           0.019223           0.098892           0.009931           0.915215           0.641243           0.277771           0.184183          -0.123556          -0.008256
hessian_block_lv_atom        1       5           0.359631           0.278002           0.395555          -0.198824           0.443773           0.268894          -2.530650          -2.180842          -1.493607
hessian_block_lv_atom        1       6           0.804140          -0.877834          -0.270440          -0.168408          -0.761248          -0.325223          -1.795487          -2.607529          -1.491924
hessian_block_lv_atom        1       7          -0.923205          -0.332722           0.064205          -0.768144          -1.073734          -0.537923           2.076448           1.866903           1.370443
hessian_block_lv_atom        1       8           0.470339          -0.049806          -0.298480           0.086919           0.109415           0.279560           1.831561           2.013153           1.391654
hessian_block_lv_atom        1       9           0.308752           0.078944          -0.234895          -0.221200          -0.860873          -0.394993           2.405648           2.130508           1.477097
hessian_block_lv_atom        1      10          -0.933161           0.811892           0.316462           0.287358           0.545600           0.397632           2.252285           2.854139           1.566833
hessian_block_lv_atom        1      11           1.060253           0.356225          -0.021771           0.341928           0.738128           0.373352          -2.306663          -1.987345          -1.431398
hessian_block_lv_atom        1      12           0.252889           0.304000           0.448312           0.085790          -0.178696          -0.243785          -1.379928          -1.805294          -1.288271
