# 
# This is the geometry file that corresponds to the current relaxation step.
# If you do not want this file to be written, set the "write_restart_geometry" flag to .false.
#  aims_uuid : 6365237E-2524-4199-AC73-19967F7FBF5F                                
# 
lattice_vector      5.83785779      0.00000000      0.00000000
lattice_vector      0.00000000      5.95039654      0.00000000
lattice_vector      0.00000000      0.00000000      7.51795830
atom_frac       0.50114689      0.00041245      0.00028612 Pd
atom_frac       0.00041156      0.00047258      0.50138087 Pd
atom_frac       0.00051898      0.50114448      0.00031147 Pd
atom_frac       0.50125633      0.50120403      0.50135646 Pd
atom_frac       0.61288149      0.11862382      0.40370284 Se
atom_frac       0.89029011      0.88374816      0.90434074 Se
atom_frac       0.11215388      0.38305509      0.59876577 Se
atom_frac       0.38943136      0.61938864      0.09791031 Se
atom_frac       0.38949317      0.88376223      0.59877144 Se
atom_frac       0.11214826      0.11870294      0.09793790 Se
atom_frac       0.89022328      0.61930172      0.40371433 Se
atom_frac       0.61289019      0.38302935      0.90436725 Se
# 
# What follows is the current estimated Hessian matrix constructed by the BFGS algorithm.
# This is NOT the true Hessian matrix of the system.
# If you do not want this information here, switch it off using the "hessian_to_restart_geometry" keyword.
# 
trust_radius             0.0122098284
hessian_block                1       1           6.342842          -0.973538          -2.569768          -0.973538           8.919659          -0.192472          -2.569768          -0.192472           5.135471
hessian_block                1       2          -1.018531           2.959354           0.942499          -0.494564           2.538087           0.732551          -0.520805           1.416835           0.487570
hessian_block                1       3          -1.434962           4.150644           1.346864           0.031303          -0.472584          -0.046235          -1.020924           2.352272           0.846427
hessian_block                1       4           0.525353           0.229208          -0.060581           0.425554          -1.017141          -0.337385           0.055294           0.093058           0.023922
hessian_block                1       5           0.545726          -2.063016          -0.785899          -1.632988           3.371740           1.389388          -0.114276          -0.301686           0.036585
hessian_block                1       6          -0.068994          -4.219550          -0.873916           2.000764          -4.491758          -1.692218           4.060321          -7.565113          -3.120259
hessian_block                1       7          -1.133973           2.195905           0.883635           0.497824          -0.736665          -0.220727           0.032205           0.118052          -0.011602
hessian_block                1       8           0.398472          -2.209829          -0.280131          -0.033815          -2.791426           0.420152          -0.890204           3.154607           0.372463
hessian_block                1       9          -0.094951          -0.053730           0.162273           0.689685          -3.132622          -1.105768          -0.196131           0.258335           0.126298
hessian_block                1      10          -4.087049           5.420926           2.662427          -1.452659           3.764517           1.153021          -1.135193           4.666124           1.264710
hessian_block                1      11           1.177160          -3.264282          -1.145306           0.503692          -0.980916          -0.446903           0.228108          -0.250856           0.037127
hessian_block                1      12           0.414819          -2.172094          -0.282099           0.438742          -3.323869           0.346595           2.071373          -3.749156          -2.096850
hessian_block                2       2           8.445768           2.436057           3.594963           2.436057           8.797082           2.801037           3.594963           2.801037           5.631894
hessian_block                2       3           4.283649           3.691011           2.178093          -0.687926          -0.556427          -0.320164           2.293106           1.912810           1.202773
hessian_block                2       4           0.172461           0.529965           0.089270          -1.136559          -0.167569          -0.170679           0.126278           0.435841           0.183586
hessian_block                2       5          -3.575736          -1.109297          -1.655769           3.556598           2.315628           1.785228          -1.085470          -0.501982          -0.827169
hessian_block                2       6          -4.620392          -3.945579          -2.294159          -4.170962          -4.232831          -2.444544          -7.191893          -6.411955          -3.961644
hessian_block                2       7           1.861087           1.041352           0.755793          -1.412703          -2.634399          -1.427367          -0.181839          -0.943565          -0.448631
hessian_block                2       8          -1.762298          -1.764250          -1.006988          -0.714487          -0.945845          -0.540367           2.281544           2.041246           1.360320
hessian_block                2       9          -2.102906           0.259672          -1.028450          -2.087876          -3.319522          -1.321727          -0.730209           0.449511          -0.261919
hessian_block                2      10           4.898135           3.807665           2.446592           4.066628           3.963908           2.540769           4.956998           4.697705           2.870756
hessian_block                2      11          -3.232355          -3.148073          -1.755426          -1.324250          -3.332347          -1.665694          -0.588107          -1.330760          -0.828418
hessian_block                2      12          -1.782971          -1.303961          -0.803113          -1.483875          -0.778741          -0.653329          -4.417869          -3.882441          -2.307254
hessian_block                3       3          11.343228          -0.825578           5.377369          -0.825578           6.238660          -1.469069           5.377369          -1.469069           6.695072
hessian_block                3       4           0.239864          -0.219502          -0.081983          -1.325388           0.315214          -0.682347           0.247975          -0.106103           0.100410
hessian_block                3       5          -2.612742           0.216552          -1.582326           4.332171          -0.042363           2.953955          -0.445261           0.121936          -0.156139
hessian_block                3       6          -6.689165           1.060591          -4.145002          -5.553701          -1.348705          -2.670278         -10.583189           1.620730          -6.771705
hessian_block                3       7           2.834560          -0.135344           1.875960          -1.284568           0.106818          -0.753525          -0.035036          -0.022938          -0.004049
hessian_block                3       8          -4.252693          -0.121858          -2.153627          -1.748007          -0.307429          -1.170730           2.435915          -0.532849           1.581164
hessian_block                3       9          -0.416385           0.372940           0.059169          -3.938866           0.186696          -2.438854           0.148824           0.174413           0.303538
hessian_block                3      10           6.765281          -0.012747           4.024363           6.464719          -2.432561           4.443561           6.905417           0.192369           3.773074
hessian_block                3      11          -4.324450           0.456031          -2.556271          -1.433929          -0.004648          -0.967747          -0.490473           0.122889          -0.240852
hessian_block                3      12          -4.170274          -0.134461          -2.089833          -2.528510          -0.035646          -1.510048          -7.086499           0.265021          -4.227849
hessian_block                4       4           5.895120           0.111685          -1.981112           0.111685           6.939616           1.442746          -1.981112           1.442746           4.869448
hessian_block                4       5          -0.401502           1.161099           0.212128           0.174499          -2.828418          -0.914977          -0.011196          -1.173398          -0.648699
hessian_block                4       6          -0.052223           1.357014          -0.105180          -0.196804           0.673932          -0.384228           0.375025           1.653549          -0.347086
hessian_block                4       7          -1.953298          -1.310080           0.787383          -0.278793          -0.087934           0.195298           0.838289           0.050880          -0.472128
hessian_block                4       8          -0.183359           0.357001          -0.190819           0.106210          -0.162166          -0.094693          -0.179719          -0.515831           0.150923
hessian_block                4       9          -0.281679           0.637292           0.122927           0.066383          -1.670197          -1.144725           0.104795          -0.773028          -0.436827
hessian_block                4      10          -0.449521          -1.562178           0.032096          -0.299961          -0.525808           0.403241          -0.022188          -0.918490           0.407773
hessian_block                4      11          -1.863448           0.542637           0.738771          -0.605544          -0.563449          -0.026743           0.882088           0.170307          -0.550726
hessian_block                4      12          -0.081856           0.741923          -0.045741           0.382656           0.740945           0.101284           0.047314           1.253675          -0.178734
hessian_block                5       5           6.160988          -2.482012          -0.909311          -2.482012           9.883189          -1.641344          -0.909311          -1.641344           7.691341
hessian_block                5       6           2.957103          -5.397735           0.487627           2.601333          -5.187767           1.169345           4.417027          -9.374902           1.684604
hessian_block                5       7          -1.614930           3.369506          -0.400711          -0.178569          -0.904622           0.508242           0.203408           0.569080          -1.052756
hessian_block                5       8           0.987002          -1.935005           0.667575           0.903872          -1.240574          -0.323035          -1.149644           3.384697          -1.301914
hessian_block                5       9          -1.272797          -0.444812           1.714532           1.368159          -5.116961           2.771822           1.412262           2.714782          -3.503837
hessian_block                5      10          -2.925217           6.057963          -0.372389          -2.199560           5.244327          -1.105313          -2.722184           6.023896          -1.573103
hessian_block                5      11           2.270487          -4.169806           0.692501           1.209184          -1.642030           0.044934          -0.295610          -0.835904           1.229765
hessian_block                5      12           1.047530          -1.428378          -0.223621           0.572258          -2.205122           0.430479           2.855918          -6.053898           1.523186
hessian_block                6       6          12.378036           6.983106          13.525484           6.983106          11.969480          12.843754          13.525484          12.843754          28.029657
hessian_block                6       7          -3.162664          -3.205534          -5.607730           1.874853           1.700429           3.346369          -0.097343          -0.297434          -0.760716
hessian_block                6       8           2.553845           2.797103           4.393097           1.649116           1.514101           2.736154          -3.948486          -4.028581          -7.481907
hessian_block                6       9           0.167660           0.262977           0.194400           4.744534           5.095934           8.017840          -0.549898          -0.881864          -1.869618
hessian_block                6      10          -9.281984          -8.348609         -15.258085          -7.763531          -8.121863         -13.775957         -10.104920          -9.916597         -17.322294
hessian_block                6      11           4.697851           4.695518           7.797450           1.299608           1.904593           2.685790           0.525485           1.071102           1.902632
hessian_block                6      12           2.686840           2.134810           3.878093           2.357572           2.171482           4.223740           7.580310           7.231543          13.120202
hessian_block                7       7           6.774544          -0.147474           1.217484          -0.147474           6.208872          -1.281467           1.217484          -1.281467           7.542688
hessian_block                7       8          -1.359882           0.577363          -0.260406          -0.660144           0.080192           0.630154           2.110233          -1.350963           1.047760
hessian_block                7       9           0.315535           0.575685          -0.182859          -2.610299           0.543668          -0.526483           0.682561          -0.453314           1.134648
hessian_block                7      10           3.689940          -2.179302           0.109678           3.295308          -2.021400           0.158428           3.453308          -2.646447           0.716366
hessian_block                7      11          -3.818261           1.434658          -1.899965          -0.306382          -1.483682           2.144732          -1.943979           2.311922          -3.447753
hessian_block                7      12          -0.866749           0.521025           0.256388          -1.526814           0.875745          -0.599437          -3.813936           1.771979          -1.141964
hessian_block                8       8           5.582189           0.496835          -2.484696           0.496835           5.825704           0.484268          -2.484696           0.484268           9.446673
hessian_block                8       9           0.292352          -0.444749          -0.238661           1.972505           1.174769          -2.889024          -0.359022           0.205287           1.393399
hessian_block                8      10          -2.717709          -1.764952           4.459910          -2.810626          -1.616102           4.255603          -3.189070          -1.645724           5.261413
hessian_block                8      11           2.023138           0.803852          -2.823050           0.782433           1.084649          -0.643309           0.652856          -0.423458          -1.430743
hessian_block                8      12           0.004853           1.406271           0.426856           1.858327          -0.968849          -3.359864           4.211231          -0.278008          -7.297684
hessian_block                9       9           5.012792          -0.449101          -0.751957          -0.449101           9.329383          -1.991868          -0.751957          -1.991868           7.614202
hessian_block                9      10          -0.151407          -4.606517           0.678180          -0.361322          -4.543690           0.904098          -0.526967          -5.534030           1.415842
hessian_block                9      11          -0.104777           3.703579          -0.715131          -0.567060           1.838771           0.067331           0.417090           0.811468          -1.142340
hessian_block                9      12           0.202474           1.147812           0.275725           0.212206           1.260798          -0.673681           0.058502           5.351348          -1.671524
hessian_block               10      10          13.709943           7.595995          10.122735           7.595995          12.528660           9.461198          10.122735           9.461198          16.918267
hessian_block               10      11          -5.053649          -4.489697          -5.122377          -1.451925          -2.089413          -1.572692          -0.750355          -1.319731          -1.615661
hessian_block               10      12          -2.830853          -2.045292          -2.615557          -2.956320          -2.503553          -2.807312          -8.155154          -7.118919          -9.015279
hessian_block               11      11           8.314877           1.590717           1.527127           1.590717           6.834918          -1.119989           1.527127          -1.119989           7.613318
hessian_block               11      12           1.479335           0.303458          -0.164231           1.844867           0.080580           0.793008           5.261679           1.500290           1.575513
hessian_block               12      12           5.462762           0.828888           1.387133           0.828888           6.333256           3.708567           1.387133           3.708567          14.820103
hessian_block_lv             1       1          26.438453          -1.768885           6.668519          -1.768885          24.769626           3.519813           6.668519           3.519813           3.117875
hessian_block_lv_atom        1       1          -1.140535          -0.560386          -0.757091           2.895613           1.952668           1.991477           1.333737           0.848291           0.798931
hessian_block_lv_atom        1       2           2.896178           1.657691           1.895930           3.681318           2.174626           1.877463           1.991984           0.990639           1.034205
hessian_block_lv_atom        1       3           4.312684           2.509261           2.720214          -0.459162           0.049579          -0.188804           2.985713           1.773350           1.789320
hessian_block_lv_atom        1       4           0.137550           0.092202          -0.009968           0.268554           0.211018          -0.313246           0.366307           0.109131           0.057105
hessian_block_lv_atom        1       5          -2.034475          -1.173133          -0.951201           3.823169           2.854096           2.793444          -2.318764          -2.926088          -1.686037
hessian_block_lv_atom        1       6          -4.849154          -3.782940          -3.588071          -5.473401          -3.871899          -3.509386         -10.456098          -8.414029          -6.829040
hessian_block_lv_atom        1       7           1.940268           1.101484           1.738675          -1.442781          -1.474300          -1.137557           0.940517           2.240449           1.278291
hessian_block_lv_atom        1       8          -2.062085          -1.117674          -1.486855          -1.403309          -0.809615          -0.481575           4.409796           4.346243           3.149403
hessian_block_lv_atom        1       9           0.154321           0.228976          -0.249283          -4.308633          -3.200081          -2.653732           1.730882           2.807720           1.596639
hessian_block_lv_atom        1      10           5.128139           3.840620           3.814599           5.704991           3.659848           3.490533           7.747438           6.730698           5.104607
hessian_block_lv_atom        1      11          -3.084766          -1.896187          -2.419061          -2.002411          -0.537645          -0.538727          -1.982194          -2.663604          -1.656139
hessian_block_lv_atom        1      12          -1.398122          -0.899913          -0.707888          -1.283945          -1.008295          -1.329888          -6.749316          -5.842800          -4.637285
symmetry_n_params 39 3 36
symmetry_params a1 b2 c3 x0 x1 x2 x3 x4 x5 x6 x7 x8 x9 x10 x11 x12 x13 x14 x15 x16 x17 x18 x19 x20 x21 x22 x23 x24 x25 x26 x27 x28 x29 x30 x31 x32 x33 x34 x35
symmetry_lv a1 , 0 , 0 
symmetry_lv 0 , b2 , 0 
symmetry_lv 0 , 0 , c3
symmetry_frac x0 , x1 , x2
symmetry_frac x3 , x4 , x5
symmetry_frac x6 , x7 , x8
symmetry_frac x9 , x10 , x11
symmetry_frac x12 , x13 , x14
symmetry_frac x15 , x16 , x17
symmetry_frac x18 , x19 , x20
symmetry_frac x21 , x22 , x23
symmetry_frac x24 , x25 , x26
symmetry_frac x27 , x28 , x29
symmetry_frac x30 , x31 , x32
symmetry_frac x33 , x34 , x35
