# 
# This is the geometry file that corresponds to the current relaxation step.
# If you do not want this file to be written, set the "write_restart_geometry" flag to .false.
#  aims_uuid : 71CA4E0C-A40B-45A7-A06B-5DEA4DBBFF4E                                
# 
lattice_vector      5.85482426      0.00000000      0.00000000
lattice_vector      0.00000000      5.95917604      0.00000000
lattice_vector      0.00000000      0.00000000      7.43171898
atom_frac       0.50242025      0.00207665      0.00191842 Pd
atom_frac       0.00206435      0.00208566      0.50265814 Pd
atom_frac       0.00214842      0.50244780      0.00196461 Pd
atom_frac       0.50250367      0.50245646      0.50261172 Pd
atom_frac       0.61429267      0.12007182      0.40432343 Se
atom_frac       0.89103866      0.88488598      0.90453387 Se
atom_frac       0.11390956      0.38454032      0.60074501 Se
atom_frac       0.39062259      0.62041076      0.10024888 Se
atom_frac       0.39066628      0.88490598      0.60074525 Se
atom_frac       0.11394239      0.12007924      0.10026683 Se
atom_frac       0.89100963      0.62040744      0.40432544 Se
atom_frac       0.61427379      0.38452411      0.90455066 Se
# 
# What follows is the current estimated Hessian matrix constructed by the BFGS algorithm.
# This is NOT the true Hessian matrix of the system.
# If you do not want this information here, switch it off using the "hessian_to_restart_geometry" keyword.
# 
trust_radius             0.0122098284
hessian_block                1       1           5.958700           0.060511          -2.198298           0.060511           6.435743          -1.058211          -2.198298          -1.058211           4.804125
hessian_block                1       2          -0.032076           0.485870           0.046642           0.320713           0.208552          -0.146072          -0.023218          -0.057305          -0.044337
hessian_block                1       3          -0.056418           0.519002           0.036021          -0.057456          -0.130998           0.099114          -0.169029           0.144191           0.034288
hessian_block                1       4           0.511448           0.190786          -0.083978           0.121853          -0.505498          -0.200544           0.074933          -0.050263          -0.029764
hessian_block                1       5          -0.045922          -0.433647          -0.193945          -0.341139           0.354054           0.351171          -0.290942           0.332484           0.293529
hessian_block                1       6          -1.766668          -0.087334           0.595708           0.438006          -0.446325          -0.258619           1.264840          -0.253156          -0.463573
hessian_block                1       7          -0.368661           0.355211           0.275534           0.092847           0.170076           0.101121           0.163595          -0.046437          -0.055289
hessian_block                1       8          -0.207442          -0.515307           0.332407          -0.344044          -1.880404           0.771794           0.103202           0.732134          -0.525584
hessian_block                1       9          -0.133100           0.018624           0.188958          -0.416491          -0.458405          -0.150459           0.049701          -0.275300          -0.073522
hessian_block                1      10          -2.303203           0.880951           1.062006           0.060302          -0.425358          -0.365228           0.730610          -0.428900          -0.593146
hessian_block                1      11           0.070877          -0.618861          -0.238337           0.225976           0.252431           0.051514           0.026837           0.391816           0.275281
hessian_block                1      12          -0.061623          -0.855809           0.177279          -0.161076          -1.926845           0.804417           0.267769           0.568948          -0.520146
hessian_block                2       2           6.059887           0.320968           2.299830           0.320968           7.283129           1.932476           2.299830           1.932476           5.123960
hessian_block                2       3           0.864718           0.842985           0.458505          -0.428621          -0.485873          -0.308133           0.183023           0.099279           0.116383
hessian_block                2       4           0.198843           0.642508           0.186924          -0.512607           0.697926           0.432328           0.036322           0.499719           0.228324
hessian_block                2       5          -2.078073           0.041662          -0.975792           0.489409          -0.708039          -0.145224          -0.526051          -0.128621          -0.656815
hessian_block                2       6          -0.531196          -0.085589           0.098840          -0.296587          -0.894543          -0.393091          -0.194736          -0.342625          -0.316394
hessian_block                2       7          -0.002151          -0.713658          -0.395462          -0.439665          -1.569538          -0.754118          -0.482758          -1.522443          -0.832125
hessian_block                2       8          -0.232043          -0.564806          -0.311584           0.085878          -0.428292          -0.259666          -0.154872          -0.303822          -0.056260
hessian_block                2       9          -2.028862           0.378000          -0.958519           0.589446          -0.838973           0.235927          -1.334341          -0.299184          -0.714336
hessian_block                2      10           0.493498          -0.141711           0.008327           0.207592           0.941119           0.752747           0.171964           0.728689           0.533032
hessian_block                2      11          -0.586284          -0.663014          -0.158650          -0.444360          -3.248674          -1.731571           0.027562          -0.826746          -0.547692
hessian_block                2      12          -0.560352          -0.378060          -0.229199          -0.057324           0.690230           0.295628          -0.072582           0.309348           0.268123
hessian_block                3       3           6.551254          -0.539760           2.398647          -0.539760           6.292247          -1.263483           2.398647          -1.263483           4.843312
hessian_block                3       4           0.339729          -0.277334          -0.042020          -0.260673           0.107780          -0.082871           0.184205          -0.155334           0.046170
hessian_block                3       5          -0.578472           0.139237          -0.298411          -0.224084           0.460169           0.213858           0.264764           0.098259           0.297494
hessian_block                3       6          -0.745342           0.473633          -0.521060          -0.052233          -1.751139           0.712244          -0.717862           0.854649          -0.688935
hessian_block                3       7           0.079913           0.130300           0.220925           0.206496          -0.126453           0.118897          -0.594432           0.187075          -0.292546
hessian_block                3       8          -2.171104          -0.204414          -0.847561          -0.705330          -0.302345          -0.488492          -1.092100          -0.142908          -0.576112
hessian_block                3       9          -0.283044           0.345499           0.131830          -0.034137          -0.187325          -0.055958          -0.783758           0.372390          -0.237031
hessian_block                3      10           0.471520           0.523633           0.177700           1.162413          -2.180285           1.136389           0.258819           0.631363          -0.344227
hessian_block                3      11          -0.425003           0.093825          -0.191822          -0.539162           0.248073          -0.295437           0.344677           0.047916           0.267302
hessian_block                3      12          -2.481840          -0.198542          -1.042220          -0.375518          -0.296826          -0.238616          -0.757485          -0.420908          -0.364235
hessian_block                4       4           5.953104           0.199448          -1.946948           0.199448           7.061755           1.590972          -1.946948           1.590972           4.917651
hessian_block                4       5          -0.487226           0.615510           0.203916           0.089582          -2.306739          -1.157881          -0.040673          -1.446244          -0.674425
hessian_block                4       6          -0.027705           0.477732           0.148884          -0.245402          -0.436554          -0.267599           0.261128          -0.348850          -0.107241
hessian_block                4       7          -2.015007          -0.947999           0.673663          -0.203382          -0.174707           0.321848           0.732441          -0.138018          -0.612864
hessian_block                4       8          -0.283370          -0.212945          -0.182494           0.031646          -0.539375          -0.144608          -0.213751          -0.039286          -0.012583
hessian_block                4       9          -0.273607           0.651043           0.149228           0.114510          -2.248086          -1.006900           0.044014          -0.780990          -0.549831
hessian_block                4      10          -0.421115          -0.429203          -0.176209          -0.135193           0.873186           0.392801           0.106030           0.629586           0.313875
hessian_block                4      11          -1.808339           0.003008           0.890526          -0.848288          -1.417386          -0.269550           0.890686          -0.036161          -0.538357
hessian_block                4      12          -0.120844           0.294832          -0.056025           0.441122           0.534723           0.246794           0.106149           0.420077           0.120907
hessian_block                5       5           5.346357          -0.391722          -1.207669          -0.391722           6.308299          -0.897136          -1.207669          -0.897136           7.745598
hessian_block                5       6           0.277941          -0.429100          -0.407784           0.212505          -0.206084           0.399311           0.098907          -0.453692           0.487778
hessian_block                5       7          -0.380143           1.135512           0.085345          -0.930238           0.069585           0.370889           0.563967           0.562320          -1.035464
hessian_block                5       8           0.135952           0.197668           0.424240           0.511920          -0.023162          -0.482723           0.464903           0.536241          -0.826109
hessian_block                5       9          -1.355549          -0.388434           1.707886          -0.388309          -1.865404           2.131387           1.912503           2.222845          -3.473743
hessian_block                5      10          -0.150821           0.542470           0.470666           0.016823          -0.017435          -0.496776           0.138306          -0.205321          -0.886937
hessian_block                5      11           0.523729          -0.937465          -0.017834           1.046225           0.189477          -0.009010          -0.673122          -0.117608           1.258508
hessian_block                5      12           0.358139           0.257305          -0.461948          -0.439964          -0.607693           0.128179          -0.033562          -0.909573           0.572450
hessian_block                6       6           5.703248           0.410068           1.848420           0.410068           5.766191           1.807778           1.848420           1.807778           8.620492
hessian_block                6       7          -0.048405          -0.150122          -0.055816           0.470557           0.187968           0.772197           0.045244           0.130133          -0.181771
hessian_block                6       8          -0.120394           0.362828           0.145032           0.127566           0.248277           0.394935          -0.077138          -0.204605          -0.730249
hessian_block                6       9           0.083998           0.131151           0.016416           0.276055           0.788109           0.185604           0.158888          -0.004190          -0.508344
hessian_block                6      10          -1.979530          -1.323766          -2.854014          -1.034420          -2.023730          -3.014875          -2.069606          -2.438956          -4.322244
hessian_block                6      11           0.241417           0.342647          -0.128156          -0.738998           0.566742           0.196407          -0.393176           0.201032           0.538495
hessian_block                6      12           0.478547           0.170905           0.315841           0.139828          -0.151885           0.201627           0.572779           0.316561           0.773850
hessian_block                7       7           5.449528           0.525511           1.115339           0.525511           6.099842          -1.509714           1.115339          -1.509714           7.960767
hessian_block                7       8          -0.031162          -0.121253           0.029393           0.034756          -0.400928           0.945472           0.310931          -0.624927           1.072431
hessian_block                7       9           0.385936           0.603232          -0.240973          -0.651329          -0.420445          -0.344430           0.277749          -0.514897           1.437585
hessian_block                7      10           0.261299          -0.579222          -0.174177           0.080566          -0.351723          -0.513686          -0.436033          -0.865228           0.249134
hessian_block                7      11          -1.877621           0.439772          -1.694590           0.673291          -2.359994           2.976557          -1.472169           2.217454          -3.525643
hessian_block                7      12           0.112381          -0.064655           0.536954          -0.472041           0.523338          -0.726826          -0.600006           0.366478          -1.082352
hessian_block                8       8           4.749349           0.080771          -0.917186           0.080771           5.677196           1.444110          -0.917186           1.444110           7.208845
hessian_block                8       9           0.237140          -0.502658          -0.209351           0.151216           0.195382          -0.259835           0.049170           0.566421           1.069549
hessian_block                8      10           0.058328          -0.234577           0.260273          -0.591399          -0.524089           0.323328          -0.398122          -0.128440           0.655912
hessian_block                8      11           0.173437          -0.165980          -0.202000           0.566602           1.206611           0.699512           0.319767          -0.654318          -0.972130
hessian_block                8      12          -0.742780           1.080053           1.727089           0.851038          -1.581847          -2.159942           1.356939          -1.964486          -3.205844
hessian_block                9       9           5.032122          -0.529769          -0.798136          -0.529769           6.456490          -1.415526          -0.798136          -1.415526           7.808085
hessian_block                9      10          -0.035494           0.263564          -0.153326          -0.210511          -0.094930          -0.102112          -0.392593          -0.128239           0.484205
hessian_block                9      11          -0.193369           0.861714          -0.100869          -0.702928           0.546549           0.803033           0.414118           0.164438          -1.166998
hessian_block                9      12           0.129738          -0.236471           0.678405           0.206749          -0.225936          -0.572489          -0.008865           0.643990          -0.973757
hessian_block               10      10           5.852229           0.592021           1.709267           0.592021           6.860226           2.368004           1.709267           2.368004           8.321332
hessian_block               10      11          -0.148136           0.045124           0.419956           0.358964          -1.389928          -0.181584           0.163490          -0.519801          -0.774500
hessian_block               10      12          -0.532665          -0.193317          -0.238596          -0.453125          -0.020030           0.019025          -0.494004           0.039207          -0.534570
hessian_block               11      11           5.514291           0.272729           0.812460           0.272729           7.987232          -1.384704           0.812460          -1.384704           7.646884
hessian_block               11      12           0.080908           0.129950          -0.461133           0.326501          -0.934108           0.516681           0.609317          -0.855166           0.640712
hessian_block               12      12           4.906300          -0.006193          -0.946448          -0.006193           5.643906           1.485523          -0.946448           1.485523           7.406728
hessian_block_lv             1       1          23.426133          -3.579439           4.885469          -3.579439          23.765686           2.451324           4.885469           2.451324           1.915851
hessian_block_lv_atom        1       1           0.265301           0.398070           0.061980          -0.419041          -0.600665          -0.164277          -0.042180          -0.209293           0.033280
hessian_block_lv_atom        1       2          -0.532041          -0.889376          -0.220025           0.159464          -0.219433          -0.000585           0.015235          -0.299070          -0.106301
hessian_block_lv_atom        1       3          -0.591078          -1.000070          -0.248908           0.274994           0.503938           0.120658          -0.056591          -0.419911          -0.020130
hessian_block_lv_atom        1       4           0.103671           0.107565          -0.002343           0.795788           0.811998           0.264703           0.062555          -0.039417          -0.041121
hessian_block_lv_atom        1       5           0.301595           0.460857           0.372433           0.136184           0.009954           0.267232          -1.895540          -2.820222          -1.483219
hessian_block_lv_atom        1       6           0.088062          -0.106766          -0.296606          -0.474574          -0.252960          -0.327927          -1.870127          -2.443723          -1.410347
hessian_block_lv_atom        1       7          -0.567590          -0.820875           0.112628          -0.746899          -1.007527          -0.537578           1.429597           2.566112           1.348728
hessian_block_lv_atom        1       8          -0.043458           0.226339          -0.235989           0.080761           0.230589           0.270921           1.595208           2.302690           1.360700
hessian_block_lv_atom        1       9           0.097527           0.192229          -0.209625          -0.618404          -0.437147          -0.389695           1.750004           2.861109           1.436449
hessian_block_lv_atom        1      10          -0.212141           0.038359           0.321213           0.528324           0.137220           0.351485           2.060105           2.941721           1.538375
hessian_block_lv_atom        1      11           0.600369           0.957143          -0.051652           0.273296           0.845086           0.396021          -1.640142          -2.587998          -1.437361
hessian_block_lv_atom        1      12           0.489786           0.436526           0.396894           0.010111          -0.021053          -0.250957          -1.408122          -1.851997          -1.219054
symmetry_n_params 39 3 36
symmetry_params a1 b2 c3 x0 x1 x2 x3 x4 x5 x6 x7 x8 x9 x10 x11 x12 x13 x14 x15 x16 x17 x18 x19 x20 x21 x22 x23 x24 x25 x26 x27 x28 x29 x30 x31 x32 x33 x34 x35
symmetry_lv a1 , 0 , 0 
symmetry_lv 0 , b2 , 0 
symmetry_lv 0 , 0 , c3
symmetry_frac x0 , x1 , x2
symmetry_frac x3 , x4 , x5
symmetry_frac x6 , x7 , x8
symmetry_frac x9 , x10 , x11
symmetry_frac x12 , x13 , x14
symmetry_frac x15 , x16 , x17
symmetry_frac x18 , x19 , x20
symmetry_frac x21 , x22 , x23
symmetry_frac x24 , x25 , x26
symmetry_frac x27 , x28 , x29
symmetry_frac x30 , x31 , x32
symmetry_frac x33 , x34 , x35
