# 
# This is the geometry file that corresponds to the current relaxation step.
# If you do not want this file to be written, set the "write_restart_geometry" flag to .false.
#  aims_uuid : 3BBA5F2B-1570-4D07-ABD9-B84A39558F94                                
# 
lattice_vector      5.69522588      0.00000000      0.00000000
lattice_vector      0.00000000      5.89256934      0.00000000
lattice_vector      0.00000000      0.00000000    101.32601826
atom_frac       0.71682522     -0.00269763      0.49985705 Se
atom_frac       0.60860130      0.61640064      0.49231413 Pd
atom_frac       0.00043285      0.49724847      0.49985615 Se
atom_frac       0.10856375      0.11644656      0.49231365 Pd
atom_frac       0.21687685      0.73551615      0.48478206 Se
atom_frac       0.50037988      0.23557006      0.48478291 Se
# 
# What follows is the current estimated Hessian matrix constructed by the BFGS algorithm.
# This is NOT the true Hessian matrix of the system.
# If you do not want this information here, switch it off using the "hessian_to_restart_geometry" keyword.
# 
trust_radius             0.1120682046
hessian_block                1       1           0.848103           0.003400           3.347715           0.003400           1.209742          -2.856826           3.347715          -2.856826         268.337168
hessian_block                1       2           0.004445          -0.152444          -0.733524          -0.167464          -0.605654          -4.347024           0.047503          -3.462656         -52.375137
hessian_block                1       3          -0.062039           0.031155          -1.906817           0.034034           0.248733          -2.065992           1.685148          -0.943598          75.803543
hessian_block                1       4          -0.346456          -0.065365           2.974754          -0.163097          -0.020854           0.459802           1.780942          -0.910578         -52.046623
hessian_block                1       5           0.044943           0.088436           1.912072           0.088593          -0.203280           1.854704          -1.701785           2.099524         -43.659592
hessian_block                1       6          -0.199995           0.094818          -5.594199           0.204533          -0.324717           6.955337          -5.159524           6.074135        -104.992553
hessian_block                2       2           1.249277           0.019823           4.983963           0.019823           1.427121           3.674485           4.983963           3.674485         228.195849
hessian_block                2       3          -0.378914           0.164852          -1.822358           0.286444          -0.270585           2.255168          -1.043327          -1.660988         -35.712520
hessian_block                2       4          -0.213348          -0.009950          -1.474548          -0.280494           0.046324          -0.608177          -1.614945           1.624489          71.346750
hessian_block                2       5          -0.417754          -0.090626          -1.689452           0.281962           0.021826           1.941792          -0.957099           1.712549         -52.019877
hessian_block                2       6           0.045295           0.083364          -0.045107          -0.155291          -0.315062          -3.800612          -0.635066          -1.003511         -68.368259
hessian_block                3       3           0.868398          -0.044423          -3.968736          -0.044423           1.404242          -3.043990          -3.968736          -3.043990         259.391141
hessian_block                3       4          -0.001119          -0.125964           0.453968           0.185529          -0.623290          -3.359874           1.435099          -2.685825         -46.124898
hessian_block                3       5          -0.173209          -0.138131           4.961500          -0.279106          -0.192792           6.379832           4.667963           5.196959        -116.381312
hessian_block                3       6           0.035884          -0.011959          -2.088553          -0.058009          -0.262337           2.628619           1.594850           0.343681         -45.909147
hessian_block                4       4           1.200639           0.239155          -4.821851           0.239155           1.398891           4.509280          -4.821851           4.509280         211.257953
hessian_block                4       5           0.018286           0.156434           0.823841          -0.048659          -0.548788          -2.138671           0.184795          -2.399182         -43.765873
hessian_block                4       6          -0.369002          -0.137528           2.396915           0.010783           0.051687          -0.398694           2.682883           1.398151         -49.600503
hessian_block                5       5           0.950653          -0.048433          -4.052498          -0.048433           1.160337          -4.698572          -4.052498          -4.698572         264.148353
hessian_block                5       6          -0.133917           0.005643           1.858624           0.032321           0.066667          -1.911279          -1.955463          -3.339084          82.745108
hessian_block                6       6           0.910735          -0.034337           3.472320          -0.034337           1.087733          -3.473371           3.472320          -3.473371         277.192161
hessian_block_lv             1       1          18.053465           9.243509          -0.472610           9.243509          10.379015          -0.060319          -0.472610          -0.060319           0.071480
hessian_block_lv_atom        1       1          -0.105183           0.181453          -0.004812          -0.519311           0.156938          -0.026134           9.195908           8.975257           0.720096
hessian_block_lv_atom        1       2          -0.187913          -0.208989          -0.018621           0.067422          -0.222569           0.005394          -4.623284          -5.890693          -0.546876
hessian_block_lv_atom        1       3           0.149656          -0.176294           0.006724          -0.827301          -0.203502          -0.060650           7.899054           7.268946           0.564945
hessian_block_lv_atom        1       4           0.106021           0.203833           0.015565           0.204009           0.121595           0.019776          -1.921716          -4.467136          -0.286335
hessian_block_lv_atom        1       5          -0.063551           0.206743          -0.003329           0.383414          -0.107591           0.013521          -5.892144          -3.769259          -0.300132
hessian_block_lv_atom        1       6           0.100970          -0.206745           0.004473           0.691767           0.255128           0.048093          -4.657819          -2.117114          -0.151697
