# 
# This is the geometry file that corresponds to the current relaxation step.
# If you do not want this file to be written, set the "write_restart_geometry" flag to .false.
#  aims_uuid : 1B08A4F8-ED84-40B4-A2D6-79B1FDD31546                                
# 
lattice_vector      3.77706747      0.00000000      0.00000000
lattice_vector     -1.88853374      3.27103638      0.00000000
lattice_vector      0.00000000      0.00000000      5.00217752
atom_frac      -0.00039110     -0.00037589     -0.00030353 Pt
atom_frac       0.33303791      0.66620690      0.25676810 Se
atom_frac       0.66619533      0.33301112      0.74237757 Se
# 
# What follows is the current estimated Hessian matrix constructed by the BFGS algorithm.
# This is NOT the true Hessian matrix of the system.
# If you do not want this information here, switch it off using the "hessian_to_restart_geometry" keyword.
# 
trust_radius             0.0666550714
hessian_block                1       1          13.348862          -6.605137          -0.787535          -6.605137          13.350476           1.127163          -0.787535           1.127163          30.008314
hessian_block                1       2          -5.901476           3.001670          -0.377766           3.020750          -5.967311          -0.529436           0.041869          -0.126661          -9.958786
hessian_block                1       3          -5.584303           2.671926           1.165301           2.652846          -5.520082          -0.597726           0.745666          -1.000501         -16.976518
hessian_block                2       2           6.244367          -3.054581           0.570017          -3.054581           6.934063          -0.350674           0.570017          -0.350674          15.189545
hessian_block                2       3           1.520192          -0.897710          -0.611886          -0.878630           0.896331           0.477335          -0.192251           0.880110          -2.157749
hessian_block                3       3           5.927194          -2.705757          -0.553416          -2.705757           6.486834           0.120391          -0.553416           0.120391          22.207277
hessian_block_lv             1       1          18.714167           3.616621           0.000000           3.616621           1.562584           0.000000           0.000000           0.000000           0.000000
hessian_block_lv_atom        1       1           0.434504           0.031389           0.000000          -0.505937          -0.029609           0.000000          -3.068110           0.054275           0.000000
hessian_block_lv_atom        1       2          -0.340119           0.027048           0.000000           0.641594          -0.004749           0.000000           6.136365           2.873322           0.000000
hessian_block_lv_atom        1       3          -0.094385          -0.058437           0.000000          -0.135657           0.034358           0.000000          -3.068255          -2.927597           0.000000
