# 
# This is the geometry file that corresponds to the current relaxation step.
# If you do not want this file to be written, set the "write_restart_geometry" flag to .false.
#  aims_uuid : 8DD050F8-F3C4-4B62-A602-587D21041F06                                
# 
lattice_vector      3.71996569      0.00000000      0.00000000
lattice_vector     -1.85998285      3.22158479      0.00000000
lattice_vector      0.00000000      0.00000000    101.67409343
atom_frac       0.00059804      0.66720531      0.50128715 Se
atom_frac       0.33409331      0.33414068      0.47527187 Se
atom_frac       0.66737855      0.00072391      0.48828216 Pt
# 
# What follows is the current estimated Hessian matrix constructed by the BFGS algorithm.
# This is NOT the true Hessian matrix of the system.
# If you do not want this information here, switch it off using the "hessian_to_restart_geometry" keyword.
# 
trust_radius             0.0480726927
hessian_block                1       1           1.126307          -0.715850          -5.737390          -0.715850           1.034368           1.299245          -5.737390           1.299245        1042.665429
hessian_block                1       2          -0.020517           0.075928           2.152865           0.101525           0.015820          -0.596708          -0.439895           0.945519         -18.289634
hessian_block                1       3          -0.861783           0.517919           3.584525           0.492321          -0.806181          -0.702537           6.177285          -2.244764        -845.222858
hessian_block                2       2           1.112938          -0.591687           0.995409          -0.591687           1.081958          -1.961437           0.995409          -1.961437         947.568389
hessian_block                2       3          -0.848414           0.368158          -0.555514           0.393756          -0.853771           1.015918          -3.148274           2.558145        -750.125818
hessian_block                3       3           1.954203          -1.008080          -3.029011          -1.008080           1.903959          -0.313381          -3.029011          -0.313381        1774.501613
hessian_block_lv             1       1          18.231781           0.100831           0.000000           0.100831           0.004659           0.000000           0.000000           0.000000           0.000000
hessian_block_lv_atom        1       1          -0.550664           0.007079           0.000000           0.315094          -0.009266           0.000000          72.322646           0.906662           0.000000
hessian_block_lv_atom        1       2           0.079781          -0.004310           0.000000           0.027752           0.007512           0.000000         -54.297736          -1.415840           0.000000
hessian_block_lv_atom        1       3           0.470883          -0.002769           0.000000          -0.342846           0.001754           0.000000         -18.024910           0.509178           0.000000
