# 
# This is the geometry file that corresponds to the current relaxation step.
# If you do not want this file to be written, set the "write_restart_geometry" flag to .false.
#  aims_uuid : 3FAF98FA-A0AF-443E-A056-2AD2CAFFC7AA                                
# 
lattice_vector      3.28769493      0.00000000      0.00000000
lattice_vector     -1.64384747      2.84722733      0.00000000
lattice_vector      0.00000000      0.00000000    102.63537463
atom_frac       0.00004718      0.00024349      0.50029922 Se
atom_frac       0.33349159      0.66703522      0.48384755 W
atom_frac       0.00017537      0.00014959      0.46739228 Se
# 
# What follows is the current estimated Hessian matrix constructed by the BFGS algorithm.
# This is NOT the true Hessian matrix of the system.
# If you do not want this information here, switch it off using the "hessian_to_restart_geometry" keyword.
# 
trust_radius             0.0250000004
hessian_block                1       1           1.073419          -0.595830           3.099672          -0.595830           1.214029          -2.635828           3.099672          -2.635828        1954.533253
hessian_block                1       2          -1.417567           0.665029         -11.503563           0.574533          -1.315700          13.322116         -12.315099           2.393668       -1716.428877
hessian_block                1       3           0.564653          -0.179452           8.403891          -0.088955           0.322177         -10.686288           9.215427           0.242160         -18.728473
hessian_block                2       2           3.021189          -1.336177          27.630504          -1.336177           2.994096          -5.100149          27.630504          -5.100149        4927.555907
hessian_block                2       3          -1.383116           0.651392         -15.315405           0.560896          -1.457891           2.706481         -16.126941          -8.221967       -2991.751127
hessian_block                3       3           1.038969          -0.582193           6.911514          -0.582193           1.356220           7.979807           6.911514           7.979807        3229.855503
hessian_block_lv             1       1          16.294995           0.159556           0.000000           0.159556           0.014379           0.000000           0.000000           0.000000           0.000000
hessian_block_lv_atom        1       1          -0.054886          -0.021908           0.000000           0.384072          -0.002803           0.000000          31.571013           2.876095           0.000000
hessian_block_lv_atom        1       2          -0.433273           0.031295           0.000000           0.118956           0.031291           0.000000          39.106762           2.718444           0.000000
hessian_block_lv_atom        1       3           0.488159          -0.009387           0.000000          -0.503028          -0.028488           0.000000         -70.677775          -5.594539           0.000000
