# 
# This is the geometry file that corresponds to the current relaxation step.
# If you do not want this file to be written, set the "write_restart_geometry" flag to .false.
#  aims_uuid : 82B9BD13-AE87-4D49-AC52-EC1FB433EC44                                
# 
lattice_vector      3.77979286      0.00000000      0.00000000
lattice_vector     -1.88989643      3.27339664      0.00000000
lattice_vector      0.00000000      0.00000000      4.95753049
atom_frac      -0.00032961     -0.00033643     -0.00025819 Pt
atom_frac       0.33317567      0.66617357      0.25914507 Se
atom_frac       0.66635336      0.33336227      0.74031253 Se
# 
# What follows is the current estimated Hessian matrix constructed by the BFGS algorithm.
# This is NOT the true Hessian matrix of the system.
# If you do not want this information here, switch it off using the "hessian_to_restart_geometry" keyword.
# 
trust_radius             0.1000000015
hessian_block                1       1           9.044978          -0.167932           0.622576          -0.167932           7.158588          -0.480920           0.622576          -0.480920          24.251281
hessian_block                1       2          -3.440527          -0.308904          -0.448092          -0.042177          -2.418323           0.699848           0.351290           0.608988         -10.308771
hessian_block                1       3          -3.741367          -0.454706          -0.174484          -0.721433          -2.877182          -0.218928          -0.973866          -0.128068         -10.869500
hessian_block                2       2           5.278638          -1.301116           0.599240          -1.301116           5.624985          -1.264146           0.599240          -1.264146          15.541938
hessian_block                2       3           0.024973           0.411751          -0.950530           0.678478          -1.343579           0.655157          -0.151148           0.564298          -2.160157
hessian_block                3       3           5.579478          -0.888587           1.125014          -0.888587           6.083844          -0.436230           1.125014          -0.436230          16.102667
hessian_block_lv             1       1          35.100763           5.828768           0.000000           5.828768           2.035799           0.000000           0.000000           0.000000           0.000000
hessian_block_lv_atom        1       1           0.577007           0.318629           0.000000           0.327458           0.199186           0.000000           0.371656           0.102779           0.000000
hessian_block_lv_atom        1       2           1.505604           0.206844           0.000000           2.250241           0.215099           0.000000           3.180945           2.644031           0.000000
hessian_block_lv_atom        1       3          -2.082611          -0.525472           0.000000          -2.577698          -0.414284           0.000000          -3.552601          -2.746810           0.000000
