# 
# This is the geometry file that corresponds to the current relaxation step.
# If you do not want this file to be written, set the "write_restart_geometry" flag to .false.
#  aims_uuid : 46071A72-639A-4C06-ACA1-F2FDC1306AE1                                
# 
lattice_vector      3.28798081      0.00000000      0.00000000
lattice_vector     -1.64399040      2.84747491      0.00000000
lattice_vector      0.00000000      0.00000000     13.22912015
atom_frac       0.33018220      0.66544877      0.25340948 W
atom_frac       0.67669245      0.34137804      0.75342370 W
atom_frac       0.34320898      0.67463696      0.88099733 Se
atom_frac       0.66357737      0.33220112      0.38097119 Se
atom_frac       0.66359466      0.33219664      0.12583811 Se
atom_frac       0.34322578      0.67461992      0.62584164 Se
# 
# What follows is the current estimated Hessian matrix constructed by the BFGS algorithm.
# This is NOT the true Hessian matrix of the system.
# If you do not want this information here, switch it off using the "hessian_to_restart_geometry" keyword.
# 
trust_radius             0.0221794505
hessian_block                1       1         471.098194         161.324606          -0.992747         161.324606          73.912589          -3.389234          -0.992747          -3.389234         286.170269
hessian_block                1       2        -451.612035        -172.785871          15.779404        -179.741982         -65.689379          -5.896700           6.046653           0.148919          -0.272843
hessian_block                1       3          -6.869651          -0.709112          -5.593354          13.342076           4.621532           4.599003          59.935132          21.375822          66.024502
hessian_block                1       4          -2.070120           5.286942          -1.449341          -4.551195          -7.427345          -0.194481          47.364125          19.335991        -207.379238
hessian_block                1       5          -3.648156           6.106802          -3.188310          -3.148727          -8.126425           1.426233         -58.583706         -22.373501         -64.401556
hessian_block                1       6          -6.039000           0.347017          -4.555652          12.345607           3.568260           3.455179         -53.769457         -15.097996         -65.693144
hessian_block                2       2         476.345171         169.972429           4.563690         169.972429          82.121591          -2.644231           4.563690          -2.644231         254.678265
hessian_block                2       3          -3.891315           5.966097          -4.725346          -8.327903         -10.564691           1.119416         -66.959756         -23.600531         -79.540289
hessian_block                2       4          -7.879286          -1.726752          -0.372277           9.238888           3.095692          -0.050244         -73.657371         -12.066570         -53.473269
hessian_block                2       5          -7.367299          -0.622786          -1.589877           8.827597           2.108648           1.133720          75.336956          17.545907          56.546499
hessian_block                2       6          -4.736004           5.723377          -3.922843          -7.354756         -10.212629           0.292420          44.937077          26.662126        -163.490373
hessian_block                3       3           5.377358          -3.162160           1.731712          -3.162160           4.498196           1.842653           1.731712           1.842653         145.368755
hessian_block                3       4           1.171758           0.248711           1.100140          -0.096686          -0.489607          -0.123422           8.520819          -2.790249         -35.848111
hessian_block                3       5           1.712704          -0.566595           1.768307          -0.620906           0.263669          -0.652678          -5.239894           0.684409         -24.629401
hessian_block                3       6           3.358378          -1.963745           2.424466          -1.806850           2.530134           1.158156           5.306063          -5.455233         -56.927466
hessian_block                4       4           5.100789          -2.686559           1.987763          -2.686559           3.628340           1.469287           1.987763           1.469287         289.909757
hessian_block                4       5           2.922834          -1.556085           6.156935          -1.291359           1.816952          -2.226524          -0.919515          -0.288059         -72.883615
hessian_block                4       6           1.613256          -0.777980           9.627729          -0.260600           0.235200          -3.721936          -0.346769          -0.813081          94.122466
hessian_block                5       5           5.743625          -3.526589          -3.439952          -3.526589           4.578043           1.893332          -3.439952           1.893332         152.239216
hessian_block                5       6           1.495524          -0.669632          -7.153889          -0.264364           0.218346           2.537912           0.292897          -1.574084         -32.423153
hessian_block                6       6           5.167079          -3.088654           3.580189          -3.088654           4.519921          -3.721731           3.580189          -3.721731         238.859660
hessian_block_lv             1       1          54.577334           4.226165           0.000000           4.226165           1.986374           0.000000           0.000000           0.000000           0.000000
hessian_block_lv_atom        1       1          18.883987           5.830084           0.000000           6.015800           2.393704           0.000000          -7.521800          -1.704929           0.000000
hessian_block_lv_atom        1       2         -20.068915          -8.896517           0.000000          -8.368241          -1.879618           0.000000          -0.908990          -2.074796           0.000000
hessian_block_lv_atom        1       3          -0.233030           0.847709           0.000000           1.452561          -0.087117           0.000000          14.288005           8.262760           0.000000
hessian_block_lv_atom        1       4           0.061745           0.474525           0.000000           0.387765           0.017962           0.000000          32.793011          12.208518           0.000000
hessian_block_lv_atom        1       5           0.958675           0.741106           0.000000          -0.358503          -0.211244           0.000000         -21.270361         -10.503694           0.000000
hessian_block_lv_atom        1       6           0.397537           1.003093           0.000000           0.870618          -0.233688           0.000000         -17.379865          -6.187859           0.000000
