# 
# This is the geometry file that corresponds to the current relaxation step.
# If you do not want this file to be written, set the "write_restart_geometry" flag to .false.
#  aims_uuid : B23F2FB6-D1CE-47DD-AD80-0D8CA244CCD0                                
# 
lattice_vector      3.28819448      0.00000000      0.00000000
lattice_vector     -1.64409724      2.84765995      0.00000000
lattice_vector      0.00000000      0.00000000    102.54986053
atom_frac       0.00007029      0.00024994      0.50017794 Se
atom_frac       0.33344899      0.66684001      0.48371747 W
atom_frac       0.00010581      0.00016024      0.46725629 Se
# 
# What follows is the current estimated Hessian matrix constructed by the BFGS algorithm.
# This is NOT the true Hessian matrix of the system.
# If you do not want this information here, switch it off using the "hessian_to_restart_geometry" keyword.
# 
trust_radius             0.0500000007
hessian_block                1       1           1.481783          -0.616696           1.178240          -0.616696           1.249318          -6.690069           1.178240          -6.690069        2199.043992
hessian_block                1       2          -1.762433           0.544456           4.551060           0.556993          -1.244956           4.574105          -7.158033          -2.034640       -1571.161033
hessian_block                1       3           0.501156          -0.038012          -5.729300          -0.050550           0.216144           2.115964           5.979792           8.724709        -408.507056
hessian_block                2       2           3.610374          -1.042883          15.954706          -1.042883           2.507702           4.245800          15.954706           4.245800        3719.385361
hessian_block                2       3          -1.627435           0.375637          -8.796673           0.388174          -1.042241          -2.211159         -20.505766          -8.819904       -1928.848424
hessian_block                3       3           1.346785          -0.447877          14.525974          -0.447877           1.046602           0.095195          14.525974           0.095195        2556.731384
hessian_block_lv             1       1          47.352607           0.696430           0.000000           0.696430           0.019766           0.000000           0.000000           0.000000           0.000000
hessian_block_lv_atom        1       1          -2.426882          -0.028366           0.000000          -1.112228          -0.031646           0.000000         121.038367           4.562133           0.000000
hessian_block_lv_atom        1       2           5.608910           0.084478           0.000000           1.431786           0.032044           0.000000          61.919626           0.978358           0.000000
hessian_block_lv_atom        1       3          -3.182028          -0.056112           0.000000          -0.319558          -0.000398           0.000000        -182.957993          -5.540491           0.000000
