# 
# This is the geometry file that corresponds to the current relaxation step.
# If you do not want this file to be written, set the "write_restart_geometry" flag to .false.
#  aims_uuid : 35A308B9-797C-48A8-AE50-526DBFE553CF                                
# 
lattice_vector      3.28818127      0.00000000      0.00000000
lattice_vector     -1.64409063      2.84764851      0.00000000
lattice_vector      0.00000000      0.00000000    102.27451111
atom_frac       0.00051580      0.00116932      0.50245005 Se
atom_frac       0.33402506      0.66785210      0.48594342 W
atom_frac       0.00061933      0.00129897      0.46943536 Se
# 
# What follows is the current estimated Hessian matrix constructed by the BFGS algorithm.
# This is NOT the true Hessian matrix of the system.
# If you do not want this information here, switch it off using the "hessian_to_restart_geometry" keyword.
# 
trust_radius             0.0250000004
hessian_block                1       1           2.147757          -1.031188           7.495336          -1.031188           1.298564          -0.353750           7.495336          -0.353750        2235.230599
hessian_block                1       2          -2.907844           1.411644          -9.364194           1.979122          -1.648814           7.997073         -10.900904           5.825590       -1295.901999
hessian_block                1       3           0.980592          -0.490709           1.868858          -1.058187           0.570756          -7.643323           3.405568          -5.471839        -719.952696
hessian_block                2       2           5.655079          -3.748045          23.811542          -3.748045           4.164738         -14.170119          23.811542         -14.170119        3703.261081
hessian_block                2       3          -2.526730           1.658670         -12.910638           2.226148          -2.295418           8.344529         -14.447348           6.173046       -2187.983179
hessian_block                3       3           1.766643          -1.278214          11.041780          -1.278214           1.945167          -0.701206          11.041780          -0.701206        3127.311779
hessian_block_lv             1       1          22.208916           0.284128           0.000000           0.284128           0.015846           0.000000           0.000000           0.000000           0.000000
hessian_block_lv_atom        1       1           0.229556           0.004665           0.000000          -0.077907           0.007784           0.000000          83.944850           4.523555           0.000000
hessian_block_lv_atom        1       2          -0.226035           0.009538           0.000000           0.335397           0.001236           0.000000          17.018953           1.330919           0.000000
hessian_block_lv_atom        1       3          -0.003522          -0.014204           0.000000          -0.257490          -0.009020           0.000000        -100.963803          -5.854474           0.000000
