#=======================================================
# FHI-aims file: ./geometry.in
# Created using the Atomic Simulation Environment (ASE)
# Thu Mar 19 17:13:25 2020
#=======================================================
lattice_vector 3.1600000000000001 0.0000000000000000 0.0000000000000000 
lattice_vector -1.5800000000000001 2.7366402800000000 0.0000000000000000 
lattice_vector 0.0000000000000000 0.0000000000000000 12.3000000000000007 
atom_frac 0.3333333327243141 0.6666666654486282 0.2500000000000000 Mo
atom_frac 0.6666666672756860 0.3333333345513719 0.7500000000000000 Mo
atom_frac 0.3333333327243141 0.6666666654486282 0.8784999999999999 S
atom_frac 0.6666666672756860 0.3333333345513719 0.3785000000000000 S
atom_frac 0.6666666672756860 0.3333333345513719 0.1215000000000000 S
atom_frac 0.3333333327243141 0.6666666654486282 0.6214999999999999 S
