# 
# This is the geometry file that corresponds to the current relaxation step.
# If you do not want this file to be written, set the "write_restart_geometry" flag to .false.
#  aims_uuid : 6FF1F724-2FB0-4EB9-A890-2BBA32F3A5C9                                
# 
lattice_vector      3.71972263      0.00000000      0.00000000
lattice_vector     -1.85986131      3.22137429      0.00000000
lattice_vector      0.00000000      0.00000000    101.77979361
atom_frac       0.00059377      0.66731967      0.50105943 Se
atom_frac       0.33379164      0.33386588      0.47506009 Se
atom_frac       0.66723391      0.00043376      0.48806298 Pt
# 
# What follows is the current estimated Hessian matrix constructed by the BFGS algorithm.
# This is NOT the true Hessian matrix of the system.
# If you do not want this information here, switch it off using the "hessian_to_restart_geometry" keyword.
# 
trust_radius             0.0489702412
hessian_block                1       1           1.386939          -1.243297         -12.343093          -1.243297           2.053391          16.680955         -12.343093          16.680955        1251.885586
hessian_block                1       2           0.255909          -0.389424          -4.880884          -0.382010           0.954381          10.505798          12.641022         -23.874464        -358.277301
hessian_block                1       3          -1.398840           1.510718          17.223977           1.503304          -2.763766         -27.186753          -0.297929           7.193509        -714.455347
hessian_block                2       2           1.264333          -1.015837          12.100077          -1.015837           1.744879         -22.569826          12.100077         -22.569826        1526.277837
hessian_block                2       3          -1.276235           1.275844         -24.741099           1.283258          -2.455253          46.444290          -7.219193          12.064028        -988.847599
hessian_block                3       3           2.919082          -2.908566           7.517122          -2.908566           5.463026         -19.257537           7.517122         -19.257537        1882.455884
hessian_block_lv             1       1          19.044486           0.245827           0.000000           0.245827           0.014319           0.000000           0.000000           0.000000           0.000000
hessian_block_lv_atom        1       1          -1.017473          -0.052556           0.000000           1.551100           0.097338           0.000000          87.204499           2.474330           0.000000
hessian_block_lv_atom        1       2          -0.492921          -0.049888           0.000000           1.004146           0.090915           0.000000         -83.263360          -3.798967           0.000000
hessian_block_lv_atom        1       3           1.510394           0.102444           0.000000          -2.555247          -0.188253           0.000000          -3.941139           1.324637           0.000000
