# 
# This is the geometry file that corresponds to the current relaxation step.
# If you do not want this file to be written, set the "write_restart_geometry" flag to .false.
#  aims_uuid : 93BDBE12-1766-4614-A6B5-A2D0A10E92B3                                
# 
lattice_vector      3.71965749      0.00000000      0.00000000
lattice_vector     -1.85982874      3.22131788      0.00000000
lattice_vector      0.00000000      0.00000000    101.76671522
atom_frac       0.00060609      0.66736271      0.50112288 Se
atom_frac       0.33384314      0.33390624      0.47511882 Se
atom_frac       0.66729608      0.00047636      0.48812498 Pt
# 
# What follows is the current estimated Hessian matrix constructed by the BFGS algorithm.
# This is NOT the true Hessian matrix of the system.
# If you do not want this information here, switch it off using the "hessian_to_restart_geometry" keyword.
# 
trust_radius             0.0533505856
hessian_block                1       1           1.491126          -1.338010         -11.690969          -1.338010           2.083750          14.412899         -11.690969          14.412899        1183.666362
hessian_block                1       2           0.366103          -0.484929          -4.208596          -0.503031           1.004271           8.403937          16.208975         -26.728528        -300.154112
hessian_block                1       3          -1.613222           1.700935          15.899565           1.719037          -2.844014         -22.816835          -4.518006          12.315629        -704.359312
hessian_block                2       2           1.303057          -1.025178          14.643880          -1.025178           1.623648         -23.008628          14.643880         -23.008628        1633.517029
hessian_block                2       3          -1.425154           1.406205         -30.852855           1.388104          -2.383912          49.737155         -10.435284          14.604691       -1154.209980
hessian_block                3       3           3.282383          -3.229144          14.953290          -3.229144           5.471933         -26.920320          14.953290         -26.920320        2037.722229
hessian_block_lv             1       1          18.736531           0.220653           0.000000           0.220653           0.014218           0.000000           0.000000           0.000000           0.000000
hessian_block_lv_atom        1       1          -0.992515          -0.062694           0.000000           1.414436           0.098985           0.000000          81.968074           2.142355           0.000000
hessian_block_lv_atom        1       2          -0.456430          -0.054562           0.000000           0.855553           0.085459           0.000000         -80.057394          -3.981494           0.000000
hessian_block_lv_atom        1       3           1.448945           0.117255           0.000000          -2.269990          -0.184444           0.000000          -1.910680           1.839139           0.000000
