# 
# This is the geometry file that corresponds to the current relaxation step.
# If you do not want this file to be written, set the "write_restart_geometry" flag to .false.
#  aims_uuid : 28AA2870-CC49-4347-A410-E3E53E4CCA6D                                
# 
lattice_vector      5.69523179      0.00000000      0.00000000
lattice_vector      0.00000000      5.89256727      0.00000000
lattice_vector      0.00000000      0.00000000    101.32622439
atom_frac       0.71682641     -0.00269694      0.49985700 Se
atom_frac       0.60860145      0.61640022      0.49231412 Pd
atom_frac       0.00043119      0.49724838      0.49985612 Se
atom_frac       0.10856474      0.11644671      0.49231386 Pd
atom_frac       0.21687549      0.73551581      0.48478207 Se
atom_frac       0.50038067      0.23557017      0.48478292 Se
# 
# What follows is the current estimated Hessian matrix constructed by the BFGS algorithm.
# This is NOT the true Hessian matrix of the system.
# If you do not want this information here, switch it off using the "hessian_to_restart_geometry" keyword.
# 
trust_radius             0.1120690636
hessian_block                1       1           0.845974           0.002181           3.361297           0.002181           1.208827          -2.877679           3.361297          -2.877679         268.505086
hessian_block                1       2           0.004152          -0.152877          -0.766375          -0.164609          -0.604965          -4.338833          -0.010124          -3.429184         -52.394004
hessian_block                1       3          -0.061143           0.032589          -1.900065           0.030007           0.249286          -2.072350           1.674275          -0.968215          75.901061
hessian_block                1       4          -0.343775          -0.065546           2.971499          -0.162871          -0.021789           0.502839           1.743652          -0.882179         -52.234260
hessian_block                1       5           0.043416           0.089158           1.925197           0.087988          -0.202695           1.850044          -1.664873           2.094854         -43.672728
hessian_block                1       6          -0.199625           0.094496          -5.591552           0.207304          -0.324694           6.935978          -5.104227           6.062403        -105.038349
hessian_block                2       2           1.248211           0.019143           5.042817           0.019143           1.426160           3.668719           5.042817           3.668719         228.398292
hessian_block                2       3          -0.377866           0.162851          -1.826304           0.287227          -0.271335           2.268368          -1.063249          -1.637256         -36.028074
hessian_block                2       4          -0.214017          -0.010573          -1.423501          -0.280970           0.049862          -0.733876          -1.566443           1.628425          71.583676
hessian_block                2       5          -0.416761          -0.091331          -1.697579           0.282567           0.020719           1.963866          -0.976149           1.696210         -52.200867
hessian_block                2       6           0.045281           0.084518          -0.085308          -0.155090          -0.316471          -3.737893          -0.670601          -1.017264         -68.292216
hessian_block                3       3           0.867599          -0.042506          -3.949930          -0.042506           1.403999          -3.068313          -3.949930          -3.068313         259.344948
hessian_block                3       4          -0.002366          -0.123394           0.459401           0.184534          -0.629411          -3.340528           1.427025          -2.674752         -46.459083
hessian_block                3       5          -0.172868          -0.137334           4.962240          -0.278866          -0.191223           6.378822           4.664513           5.200133        -116.086170
hessian_block                3       6           0.035644          -0.014000          -2.082737          -0.058602          -0.257345           2.635491           1.584761           0.346914         -45.605876
hessian_block                4       4           1.198860           0.241688          -4.788007           0.241688           1.403505           4.428331          -4.788007           4.428331         211.634516
hessian_block                4       5           0.019348           0.153225           0.810999          -0.048779          -0.551197          -2.131363           0.143053          -2.343196         -43.916122
hessian_block                4       6          -0.369051          -0.135606           2.372773           0.006603           0.053001          -0.368462           2.637556           1.486430         -49.541920
hessian_block                5       5           0.951188          -0.047661          -4.050914          -0.047661           1.161173          -4.707311          -4.050914          -4.707311         264.280492
hessian_block                5       6          -0.135324           0.004751           1.884371           0.033944           0.067194          -1.940690          -1.949942          -3.354057          82.662201
hessian_block                6       6           0.912075          -0.034160           3.502453          -0.034160           1.082287          -3.524424           3.502453          -3.524424         276.882967
hessian_block_lv             1       1          18.064345           9.258926          -0.471326           9.258926          10.399828          -0.058882          -0.471326          -0.058882           0.071598
hessian_block_lv_atom        1       1          -0.099999           0.185813          -0.004194          -0.519901           0.154623          -0.026225           9.178516           8.995226           0.719554
hessian_block_lv_atom        1       2          -0.189181          -0.211024          -0.018790           0.067108          -0.220756           0.005350          -4.624540          -5.905144          -0.546780
hessian_block_lv_atom        1       3           0.147083          -0.178723           0.006432          -0.829159          -0.205676          -0.060723           7.893956           7.256966           0.565472
hessian_block_lv_atom        1       4           0.102886           0.202997           0.015186           0.212351           0.130112           0.020711          -1.881032          -4.467566          -0.283762
hessian_block_lv_atom        1       5          -0.065860           0.205080          -0.003489           0.381353          -0.109402           0.013317          -5.903560          -3.782745          -0.301781
hessian_block_lv_atom        1       6           0.105070          -0.204143           0.004855           0.688248           0.251099           0.047569          -4.663341          -2.096738          -0.152703
