# 
# This is the geometry file that corresponds to the current relaxation step.
# If you do not want this file to be written, set the "write_restart_geometry" flag to .false.
#  aims_uuid : CA4F1D05-D908-4E65-ABBD-6D153CD9A32C                                
# 
lattice_vector      3.28797783      0.00000000      0.00000000
lattice_vector     -1.64398891      2.84747232      0.00000000
lattice_vector      0.00000000      0.00000000     13.22894706
atom_frac       0.33060885      0.66590538      0.25380494 W
atom_frac       0.67695778      0.34171055      0.75375121 W
atom_frac       0.34352166      0.67491212      0.88133914 Se
atom_frac       0.66405749      0.33259167      0.38138788 Se
atom_frac       0.66404391      0.33263159      0.12623578 Se
atom_frac       0.34350853      0.67494691      0.62617926 Se
# 
# What follows is the current estimated Hessian matrix constructed by the BFGS algorithm.
# This is NOT the true Hessian matrix of the system.
# If you do not want this information here, switch it off using the "hessian_to_restart_geometry" keyword.
# 
trust_radius             0.0443413801
hessian_block                1       1         465.742262         173.455001         -76.972191         173.455001          77.389602         -25.371494         -76.972191         -25.371494         235.916474
hessian_block                1       2        -460.479073        -176.211888          76.494080        -175.937953         -71.321088          29.272455         -68.554563         -27.260207          33.285257
hessian_block                1       3          -2.796364          -2.686008          -0.027626          10.335256           5.866871          -1.151789         105.589155          38.686213         -11.807452
hessian_block                1       4           0.946043           3.612388          -0.395154          -9.498252          -8.195538           0.188324         101.181752          41.479498        -123.299436
hessian_block                1       5           1.051666           3.692150          -0.401830          -9.751863          -8.301644          -0.152437         -39.706032         -18.121197        -109.670415
hessian_block                1       6          -3.605300          -2.291259           1.302721          10.968195           5.421030          -2.785059         -21.538122          -9.412814          -9.976437
hessian_block                2       2         467.726668         173.529338          70.892275         173.529338          77.212526          28.846690          70.892275          28.846690         257.265585
hessian_block                2       3          -0.117287           3.642053          -1.186646          -9.404235          -7.915763          -2.252146        -106.666980         -40.561355        -120.984218
hessian_block                2       4          -3.194358          -2.875717          -0.921061          10.578880           5.561047           2.733535        -101.645294         -41.105147         -27.236955
hessian_block                2       5          -3.427531          -2.865722          -0.928768          10.867796           5.608697           2.421790          40.439526          14.370359         -18.757101
hessian_block                2       6           0.350814           4.078385           0.698763          -9.789508          -8.286186          -4.489662          20.486393           9.176999        -109.124578
hessian_block                3       3           4.246493          -2.528084           0.736353          -2.528084           3.842836           2.570098           0.736353           2.570098         139.141803
hessian_block                3       4          -0.820803           0.782131           0.123174           0.765214          -1.090319          -2.090769          -1.008701           3.342080          29.603863
hessian_block                3       5          -0.661361           0.667193           0.080743           0.475739          -0.851373          -1.920264           0.267785          -1.150840          -8.146451
hessian_block                3       6           1.008555          -0.281878           0.137555          -0.098530           1.006981           3.316077           1.218836          -1.357402         -13.359555
hessian_block                4       4           2.946863          -1.610757           1.150265          -1.610757           3.304698          -3.464457           1.150265          -3.464457         167.991110
hessian_block                4       5           1.529899          -0.908623           1.261399          -0.866487           1.870300          -3.528637           0.058400           2.011540         -19.588572
hessian_block                4       6          -0.548411           0.243921          -0.939420           0.528827          -0.590956           3.276664          -0.015623           0.621827         -13.022021
hessian_block                5       5           2.948268          -1.608091          -0.051424          -1.608091           3.337206           2.449645          -0.051424           2.449645         142.285862
hessian_block                5       6          -0.581708           0.453291          -1.008255           0.593477          -0.803953           0.440493           0.039880           0.729903          28.324668
hessian_block                6       6           4.235282          -2.632076          -0.191364          -2.632076           4.112315           0.241487          -0.191364           0.241487         131.605912
hessian_block_lv             1       1          52.977216           4.180002           0.000000           4.180002           1.694228           0.000000           0.000000           0.000000           0.000000
hessian_block_lv_atom        1       1          21.287765           7.609972           0.000000          11.437177           3.168238           0.000000          -4.964942           0.479339           0.000000
hessian_block_lv_atom        1       2         -21.072304          -7.659524           0.000000         -11.359977          -3.026175           0.000000           1.492519           0.492922           0.000000
hessian_block_lv_atom        1       3          -1.279882          -0.104687           0.000000           2.131156           0.310534           0.000000          18.408699           7.442869           0.000000
hessian_block_lv_atom        1       4           0.987591           0.058681           0.000000          -1.950344          -0.321148           0.000000          26.879671           9.263779           0.000000
hessian_block_lv_atom        1       5           1.001096           0.055310           0.000000          -1.994528          -0.307098           0.000000         -17.616098          -9.048744           0.000000
hessian_block_lv_atom        1       6          -0.924266           0.040249           0.000000           1.736516           0.175649           0.000000         -24.199849          -8.630165           0.000000
