# 
# This is the geometry file that corresponds to the current relaxation step.
# If you do not want this file to be written, set the "write_restart_geometry" flag to .false.
#  aims_uuid : 8DAC13BC-B359-4BBB-A4F9-05503C938B66                                
# 
lattice_vector      3.28825061      0.00000000      0.00000000
lattice_vector     -1.64412530      2.84770856      0.00000000
lattice_vector      0.00000000      0.00000000    102.65721157
atom_frac       0.00009687      0.00019581      0.50022131 Se
atom_frac       0.33346185      0.66693304      0.48377326 W
atom_frac       0.00010506      0.00019872      0.46732541 Se
# 
# What follows is the current estimated Hessian matrix constructed by the BFGS algorithm.
# This is NOT the true Hessian matrix of the system.
# If you do not want this information here, switch it off using the "hessian_to_restart_geometry" keyword.
# 
trust_radius             0.0102354862
hessian_block                1       1           1.111966          -0.598047          -6.256339          -0.598047           1.193689          11.562017          -6.256339          11.562017        2878.727290
hessian_block                1       2          -1.064113           0.667524           9.324205           0.614504          -1.162459         -18.119812           8.510281         -13.610541       -3110.447826
hessian_block                1       3           0.172652          -0.179730          -3.067866          -0.126710           0.189276           6.557795          -2.253942           2.048524         451.096439
hessian_block                2       2           2.379243          -1.404863         -16.403422          -1.404863           2.459006          21.191361         -16.403422          21.191361        5558.058951
hessian_block                2       3          -1.094624           0.680107           7.893141           0.627087          -1.076041          -7.580820           7.079217          -3.071549       -2228.235222
hessian_block                3       3           1.142477          -0.610630          -4.825275          -0.610630           1.107271           1.023025          -4.825275           1.023025        1996.514687
hessian_block_lv             1       1          25.920264           0.135838           0.000000           0.135838           0.011694           0.000000           0.000000           0.000000           0.000000
hessian_block_lv_atom        1       1          -0.079344          -0.011358           0.000000           0.620526           0.023849           0.000000          31.470523           4.607392           0.000000
hessian_block_lv_atom        1       2           1.028264           0.015300           0.000000          -1.347350          -0.038456           0.000000          12.607492          -2.588937           0.000000
hessian_block_lv_atom        1       3          -0.948920          -0.003943           0.000000           0.726824           0.014608           0.000000         -44.078015          -2.018456           0.000000
