# 
# This is the geometry file that corresponds to the current relaxation step.
# If you do not want this file to be written, set the "write_restart_geometry" flag to .false.
#  aims_uuid : 99A17247-9DE3-4693-ACE3-1DF2AF067AFA                                
# 
lattice_vector      5.85470036      0.00000000      0.00000000
lattice_vector      0.00000000      5.95902409      0.00000000
lattice_vector      0.00000000      0.00000000      7.43194529
atom_frac       0.50242449      0.00208993      0.00193111 Pd
atom_frac       0.00207455      0.00208615      0.50265262 Pd
atom_frac       0.00215552      0.50245776      0.00197658 Pd
atom_frac       0.50250432      0.50245358      0.50260732 Pd
atom_frac       0.61430367      0.12007492      0.40432073 Se
atom_frac       0.89103354      0.88488102      0.90453681 Se
atom_frac       0.11391169      0.38455047      0.60074810 Se
atom_frac       0.39062582      0.62040895      0.10025869 Se
atom_frac       0.39066729      0.88491184      0.60074809 Se
atom_frac       0.11394062      0.12008208      0.10027705 Se
atom_frac       0.89100518      0.62040982      0.40432199 Se
atom_frac       0.61428682      0.38452699      0.90455441 Se
# 
# What follows is the current estimated Hessian matrix constructed by the BFGS algorithm.
# This is NOT the true Hessian matrix of the system.
# If you do not want this information here, switch it off using the "hessian_to_restart_geometry" keyword.
# 
trust_radius             0.0122098505
hessian_block                1       1           5.969014           0.062060          -2.202137           0.062060           6.382957          -1.066787          -2.202137          -1.066787           4.807714
hessian_block                1       2          -0.037900           0.453019           0.035743           0.296410           0.216030          -0.121308          -0.038486          -0.054773          -0.037793
hessian_block                1       3          -0.067620           0.492681           0.034011          -0.041927          -0.140185           0.098724          -0.181315           0.121192           0.035730
hessian_block                1       4           0.514902           0.195171          -0.087829           0.109358          -0.457555          -0.169898           0.069519          -0.032525          -0.019184
hessian_block                1       5          -0.032728          -0.429184          -0.194335          -0.362524           0.302311           0.351098          -0.275421           0.306473           0.263484
hessian_block                1       6          -1.766517          -0.045400           0.592849           0.425374          -0.403823          -0.274706           1.273433          -0.216527          -0.492983
hessian_block                1       7          -0.387487           0.328815           0.276793           0.122394           0.170078           0.078868           0.165400          -0.045022          -0.049903
hessian_block                1       8          -0.219265          -0.495365           0.343444          -0.354806          -1.883335           0.764491           0.101394           0.700264          -0.516076
hessian_block                1       9          -0.135727           0.021203           0.193145          -0.388160          -0.441735          -0.177772           0.044549          -0.263966          -0.058662
hessian_block                1      10          -2.322964           0.859143           1.076948           0.052247          -0.441010          -0.344630           0.730035          -0.444858          -0.557641
hessian_block                1      11           0.081600          -0.571002          -0.228248           0.228187           0.229305           0.044694           0.041702           0.376959           0.250897
hessian_block                1      12          -0.029395          -0.871146           0.159617          -0.148613          -1.886014           0.817223           0.271324           0.619570          -0.523721
hessian_block                2       2           6.041438           0.336983           2.315231           0.336983           7.264653           1.916150           2.315231           1.916150           5.122076
hessian_block                2       3           0.857962           0.837774           0.460877          -0.441505          -0.515440          -0.332906           0.174677           0.121650           0.128841
hessian_block                2       4           0.201977           0.616793           0.175837          -0.477319           0.645360           0.392784           0.049319           0.480299           0.215713
hessian_block                2       5          -2.082925           0.023826          -0.989862           0.471116          -0.668619          -0.124794          -0.558529          -0.088297          -0.620917
hessian_block                2       6          -0.510601          -0.106792           0.096566          -0.269517          -0.878245          -0.361216          -0.195200          -0.379991          -0.314650
hessian_block                2       7          -0.008363          -0.671540          -0.369613          -0.457448          -1.590784          -0.760593          -0.476152          -1.501968          -0.828861
hessian_block                2       8          -0.220435          -0.594633          -0.331434           0.090257          -0.376370          -0.221572          -0.168665          -0.235221          -0.034455
hessian_block                2       9          -2.028531           0.394450          -0.953513           0.590929          -0.839759           0.252171          -1.315999          -0.314576          -0.733108
hessian_block                2      10           0.499512          -0.102196           0.024705           0.214017           0.935267           0.739990           0.182291           0.732957           0.509093
hessian_block                2      11          -0.560234          -0.694832          -0.180515          -0.463126          -3.192808          -1.705394           0.000077          -0.831308          -0.539555
hessian_block                2      12          -0.585992          -0.336240          -0.209793          -0.047408           0.647740           0.260155          -0.042793           0.221610           0.235482
hessian_block                3       3           6.541897          -0.563243           2.394921          -0.563243           6.309514          -1.283343           2.394921          -1.283343           4.843634
hessian_block                3       4           0.336932          -0.273786          -0.047268          -0.260250           0.102912          -0.057711           0.184968          -0.159169           0.058629
hessian_block                3       5          -0.587758           0.157420          -0.307072          -0.228842           0.431420           0.202661           0.256267           0.116687           0.278757
hessian_block                3       6          -0.723455           0.484302          -0.502063           0.003690          -1.738581           0.731829          -0.691273           0.905528          -0.698289
hessian_block                3       7           0.088865           0.107926           0.223332           0.196756          -0.103394           0.105992          -0.580773           0.187221          -0.290422
hessian_block                3       8          -2.164763          -0.196374          -0.844375          -0.678929          -0.305296          -0.483052          -1.093715          -0.166702          -0.566975
hessian_block                3       9          -0.281182           0.342193           0.138327          -0.020567          -0.163134          -0.063042          -0.773343           0.366099          -0.231224
hessian_block                3      10           0.471090           0.490646           0.182071           1.138498          -2.217991           1.144273           0.229241           0.592852          -0.335647
hessian_block                3      11          -0.417538           0.110710          -0.178592          -0.533687           0.264771          -0.313009           0.326781           0.072124           0.245986
hessian_block                3      12          -2.488518          -0.176359          -1.052644          -0.383880          -0.277570          -0.227441          -0.747962          -0.397114          -0.367155
hessian_block                4       4           5.956907           0.174192          -1.957554           0.174192           6.960379           1.552003          -1.957554           1.552003           4.901199
hessian_block                4       5          -0.484386           0.608517           0.200314           0.080908          -2.247268          -1.127023          -0.027213          -1.370196          -0.644024
hessian_block                4       6          -0.024068           0.431189           0.124068          -0.235453          -0.449248          -0.270842           0.278012          -0.375360          -0.120708
hessian_block                4       7          -2.022981          -0.902639           0.697564          -0.176442          -0.170861           0.309562           0.737265          -0.117548          -0.605370
hessian_block                4       8          -0.296874          -0.254386          -0.195722           0.032148          -0.491304          -0.118037          -0.211255           0.034735           0.011299
hessian_block                4       9          -0.276823           0.661416           0.152179           0.146559          -2.238688          -1.008125           0.042041          -0.809726          -0.561649
hessian_block                4      10          -0.437408          -0.400123          -0.152970          -0.151714           0.850628           0.387529           0.091356           0.617269           0.311112
hessian_block                4      11          -1.807154          -0.056538           0.864581          -0.845645          -1.330981          -0.227263           0.899005          -0.008345          -0.529171
hessian_block                4      12          -0.095112           0.366577          -0.036269           0.437266           0.473651           0.213590           0.107605           0.311991           0.084018
hessian_block                5       5           5.356983          -0.406322          -1.189918          -0.406322           6.263763          -0.929213          -1.189918          -0.929213           7.686700
hessian_block                5       6           0.268820          -0.373048          -0.403318           0.191877          -0.163467           0.349278           0.102332          -0.434420           0.435063
hessian_block                5       7          -0.395196           1.135452           0.043849          -0.913580           0.059164           0.351019           0.562422           0.552531          -1.040652
hessian_block                5       8           0.131221           0.228611           0.438036           0.503336          -0.028799          -0.525648           0.454279           0.499625          -0.851214
hessian_block                5       9          -1.356127          -0.380765           1.701600          -0.374048          -1.871484           2.118563           1.904380           2.223033          -3.444741
hessian_block                5      10          -0.159024           0.544907           0.465650           0.012876          -0.014644          -0.430961           0.139933          -0.212865          -0.808076
hessian_block                5      11           0.530992          -0.903637           0.032306           1.055422           0.145478          -0.061833          -0.652912          -0.137360           1.222945
hessian_block                5      12           0.376038           0.194145          -0.483309          -0.430142          -0.560830           0.164130          -0.029560          -0.863272           0.624536
hessian_block                6       6           5.666862           0.384675           1.813507           0.384675           5.717373           1.733908           1.813507           1.733908           8.549053
hessian_block                6       7          -0.029961          -0.132649          -0.069806           0.462751           0.190355           0.802939           0.054630           0.140697          -0.144706
hessian_block                6       8          -0.143435           0.363828           0.142652           0.130218           0.215850           0.346204          -0.042949          -0.202121          -0.733094
hessian_block                6       9           0.080654           0.124491           0.007023           0.271856           0.776220           0.214806           0.169902           0.030849          -0.450193
hessian_block                6      10          -1.950320          -1.280902          -2.826627          -1.018684          -1.969105          -2.969253          -2.045172          -2.365911          -4.229244
hessian_block                6      11           0.211329           0.315856          -0.123583          -0.714252           0.529329           0.183294          -0.397814           0.164942           0.500200
hessian_block                6      12           0.486602           0.108731           0.289531           0.093186          -0.179633           0.188871           0.539796           0.323294           0.801415
hessian_block                7       7           5.468736           0.491074           1.119166           0.491074           6.113128          -1.508706           1.119166          -1.508706           7.942300
hessian_block                7       8          -0.000281          -0.124960           0.053021           0.037821          -0.412328           0.936592           0.295883          -0.642206           1.032312
hessian_block                7       9           0.390311           0.590012          -0.246409          -0.687373          -0.397511          -0.365228           0.294817          -0.494246           1.428063
hessian_block                7      10           0.288661          -0.610561          -0.179313           0.098521          -0.363516          -0.530230          -0.423815          -0.868712           0.217935
hessian_block                7      11          -1.871936           0.462083          -1.702878           0.651864          -2.365863           2.961607          -1.504183           2.212425          -3.508295
hessian_block                7      12           0.045544          -0.042079           0.493619          -0.457272           0.518558          -0.709947          -0.583986           0.413656          -1.050534
hessian_block                8       8           4.771973           0.095950          -0.914984           0.095950           5.650231           1.430391          -0.914984           1.430391           7.203530
hessian_block                8       9           0.241364          -0.503511          -0.200392           0.147264           0.163408          -0.294373           0.058051           0.578863           1.046643
hessian_block                8      10           0.091148          -0.213514           0.247745          -0.614955          -0.474205           0.351988          -0.409730          -0.078974           0.676982
hessian_block                8      11           0.144881          -0.164175          -0.173748           0.615063           1.152507           0.640215           0.323204          -0.677730          -0.979591
hessian_block                8      12          -0.769625           1.025206           1.706409           0.829958          -1.563333          -2.116593           1.337836          -1.951526          -3.187497
hessian_block                9       9           5.034804          -0.549139          -0.799475          -0.549139           6.471109          -1.408056          -0.799475          -1.408056           7.785686
hessian_block                9      10          -0.031931           0.224125          -0.161621          -0.202492          -0.090930          -0.149909          -0.384135          -0.141922           0.421898
hessian_block                9      11          -0.196836           0.869750          -0.125417          -0.705166           0.508028           0.817339           0.408094           0.177997          -1.134943
hessian_block                9      12           0.125939          -0.231197           0.662117           0.207309          -0.228499          -0.575706          -0.016446           0.694981          -0.965905
hessian_block               10      10           5.852425           0.575428           1.664324           0.575428           6.823167           2.296089           1.664324           2.296089           8.199647
hessian_block               10      11          -0.161180           0.032200           0.400801           0.356529          -1.355380          -0.147788           0.158718          -0.485858          -0.715373
hessian_block               10      12          -0.574097          -0.135944          -0.175128          -0.443483          -0.035254           0.021861          -0.499630          -0.009028          -0.588821
hessian_block               11      11           5.477397           0.304178           0.850174           0.304178           7.927785          -1.395024           0.850174          -1.395024           7.617966
hessian_block               11      12           0.134590           0.050635          -0.452847           0.295405          -0.865148           0.531180           0.565120          -0.796839           0.670798
hessian_block               12      12           4.939938           0.047674          -0.901302           0.047674           5.603355           1.432677          -0.901302           1.432677           7.369245
hessian_block_lv             1       1          22.956305          -4.006341           4.732700          -4.006341          23.282995           2.307461           4.732700           2.307461           1.886512
hessian_block_lv_atom        1       1           0.259488           0.393854           0.058518          -0.332396          -0.545885          -0.152642           0.016079          -0.149879           0.060202
hessian_block_lv_atom        1       2          -0.461204          -0.820286          -0.200430           0.154900          -0.195465           0.013204          -0.040352          -0.335442          -0.121977
hessian_block_lv_atom        1       3          -0.548686          -0.947233          -0.238255           0.263238           0.473952           0.109413          -0.006947          -0.359945          -0.000437
hessian_block_lv_atom        1       4           0.093030           0.111932          -0.004984           0.700271           0.760625           0.257614           0.013610          -0.077369          -0.050914
hessian_block_lv_atom        1       5           0.273213           0.424122           0.367353           0.157376           0.004779           0.260810          -1.754601          -2.695083          -1.447428
hessian_block_lv_atom        1       6           0.084587          -0.118507          -0.293817          -0.460552          -0.218066          -0.311886          -1.730079          -2.345557          -1.365954
hessian_block_lv_atom        1       7          -0.529852          -0.807774           0.120630          -0.673818          -0.954424          -0.524616           1.324248           2.452359           1.312813
hessian_block_lv_atom        1       8          -0.050124           0.181190          -0.244696           0.072201           0.241728           0.279326           1.567081           2.288996           1.356670
hessian_block_lv_atom        1       9           0.103731           0.197273          -0.209252          -0.618971          -0.440001          -0.399053           1.610327           2.726083           1.391659
hessian_block_lv_atom        1      10          -0.253547           0.014359           0.306133           0.448353           0.073721           0.326003           1.913899           2.827616           1.491127
hessian_block_lv_atom        1      11           0.524078           0.901673          -0.072387           0.281539           0.824673           0.389828          -1.508407          -2.457744          -1.399917
hessian_block_lv_atom        1      12           0.505291           0.469397           0.411188           0.007857          -0.025638          -0.248003          -1.404854          -1.874034          -1.225844
symmetry_n_params 39 3 36
symmetry_params a1 b2 c3 x0 x1 x2 x3 x4 x5 x6 x7 x8 x9 x10 x11 x12 x13 x14 x15 x16 x17 x18 x19 x20 x21 x22 x23 x24 x25 x26 x27 x28 x29 x30 x31 x32 x33 x34 x35
symmetry_lv a1 , 0 , 0 
symmetry_lv 0 , b2 , 0 
symmetry_lv 0 , 0 , c3
symmetry_frac x0 , x1 , x2
symmetry_frac x3 , x4 , x5
symmetry_frac x6 , x7 , x8
symmetry_frac x9 , x10 , x11
symmetry_frac x12 , x13 , x14
symmetry_frac x15 , x16 , x17
symmetry_frac x18 , x19 , x20
symmetry_frac x21 , x22 , x23
symmetry_frac x24 , x25 , x26
symmetry_frac x27 , x28 , x29
symmetry_frac x30 , x31 , x32
symmetry_frac x33 , x34 , x35
