# 
# This is the geometry file that corresponds to the current relaxation step.
# If you do not want this file to be written, set the "write_restart_geometry" flag to .false.
#  aims_uuid : 1C50E82C-E608-44DD-A892-46840BC028A4                                
# 
lattice_vector      5.85282042      0.00000000      0.00000000
lattice_vector      0.00000000      5.95927092      0.00000000
lattice_vector      0.00000000      0.00000000      7.45789528
atom_frac       0.50230847      0.00237451      0.00207553 Pd
atom_frac       0.00236691      0.00239174      0.50274712 Pd
atom_frac       0.00249265      0.50235861      0.00214954 Pd
atom_frac       0.50242503      0.50238685      0.50267046 Pd
atom_frac       0.61459794      0.12069224      0.40522041 Se
atom_frac       0.89032299      0.88415667      0.90498296 Se
atom_frac       0.11455895      0.38416268      0.59982495 Se
atom_frac       0.39029068      0.62066251      0.09960555 Se
atom_frac       0.39030473      0.88419666      0.59982627 Se
atom_frac       0.11457256      0.12072392      0.09961918 Se
atom_frac       0.89021560      0.62065797      0.40522291 Se
atom_frac       0.61447700      0.38416914      0.90498862 Se
# 
# What follows is the current estimated Hessian matrix constructed by the BFGS algorithm.
# This is NOT the true Hessian matrix of the system.
# If you do not want this information here, switch it off using the "hessian_to_restart_geometry" keyword.
# 
trust_radius             0.0244197010
hessian_block                1       1           5.943173           0.124878          -2.166294           0.124878           6.231778          -1.151063          -2.166294          -1.151063           4.763338
hessian_block                1       2           0.025346           0.298000          -0.054362           0.349945           0.078963          -0.208517          -0.022681          -0.100404          -0.073195
hessian_block                1       3           0.014053           0.289294          -0.088333          -0.055848          -0.104273           0.121904          -0.127375          -0.012146          -0.043227
hessian_block                1       4           0.504822           0.215338          -0.081958           0.087681          -0.410760          -0.150863           0.067150          -0.028828          -0.019753
hessian_block                1       5          -0.080942          -0.321356          -0.144990          -0.318748           0.184139           0.268397          -0.208063           0.148842           0.181479
hessian_block                1       6          -1.844250           0.157592           0.726897           0.364858          -0.240294          -0.160070           1.222293          -0.077487          -0.394524
hessian_block                1       7          -0.342319           0.209618           0.196573           0.116620           0.191590           0.100854           0.088775           0.142081           0.057937
hessian_block                1       8          -0.221522          -0.467652           0.388132          -0.390543          -1.804715           0.798627           0.076159           0.757765          -0.488259
hessian_block                1       9          -0.126661           0.011206           0.203084          -0.426105          -0.334693          -0.097469          -0.037266          -0.069573           0.046419
hessian_block                1      10          -2.236410           0.634261           0.929829           0.107393          -0.597206          -0.462516           0.744818          -0.492588          -0.600197
hessian_block                1      11           0.022670          -0.415342          -0.123315           0.197610           0.306212           0.091923           0.098858           0.239423           0.174247
hessian_block                1      12          -0.092047          -0.735842           0.214737          -0.157740          -1.853715           0.848790           0.263624           0.643977          -0.502403
hessian_block                2       2           5.887705           0.211729           2.282554           0.211729           7.185170           1.916104           2.282554           1.916104           5.146433
hessian_block                2       3           0.662104           0.690549           0.433790          -0.409157          -0.495987          -0.334160           0.044505           0.019947           0.106300
hessian_block                2       4           0.230262           0.657351           0.202475          -0.419350           0.717028           0.433889           0.056835           0.494557           0.226892
hessian_block                2       5          -1.957113           0.166233          -0.916125           0.373770          -0.705984          -0.096082          -0.728475          -0.255552          -0.690951
hessian_block                2       6          -0.332036          -0.009378           0.077905          -0.135082          -0.827340          -0.401688          -0.082298          -0.340814          -0.352848
hessian_block                2       7          -0.111083          -0.722493          -0.352890          -0.449543          -1.612727          -0.792342          -0.289308          -1.347004          -0.785926
hessian_block                2       8          -0.233428          -0.690770          -0.434954           0.184599          -0.264897          -0.160759          -0.103702          -0.165513          -0.000884
hessian_block                2       9          -2.060751           0.321053          -1.015888           0.671470          -0.828276           0.205530          -1.112015          -0.124703          -0.661863
hessian_block                2      10           0.299730          -0.215857           0.040080           0.097492           0.921441           0.810752           0.155935           0.755826           0.555715
hessian_block                2      11          -0.426337          -0.629011          -0.203017          -0.390435          -3.141146          -1.698850          -0.140981          -0.956091          -0.581146
hessian_block                2      12          -0.418492          -0.129348          -0.091249          -0.033495           0.620781           0.218010          -0.028687           0.211757           0.213340
hessian_block                3       3           6.299130          -0.525809           2.231463          -0.525809           6.304819          -1.257285           2.231463          -1.257285           4.734252
hessian_block                3       4           0.382551          -0.285095          -0.019939          -0.173023           0.083239          -0.003911           0.198995          -0.163239           0.066562
hessian_block                3       5          -0.405636           0.118742          -0.192842          -0.329907           0.439072           0.128328           0.023997           0.161254           0.129301
hessian_block                3       6          -0.522267           0.461433          -0.360140           0.142880          -1.748936           0.834348          -0.576334           0.897925          -0.612881
hessian_block                3       7          -0.024086           0.119526           0.142672           0.191294          -0.096375           0.107208          -0.341235           0.147070          -0.131686
hessian_block                3       8          -2.228132          -0.167472          -0.871884          -0.539798          -0.335733          -0.396491          -1.001769          -0.185504          -0.508730
hessian_block                3       9          -0.348031           0.363394           0.101947           0.052417          -0.163521          -0.005291          -0.500508           0.315935          -0.053934
hessian_block                3      10           0.243440           0.517661           0.022384           1.034431          -2.218283           1.061258           0.219929           0.584834          -0.349407
hessian_block                3      11          -0.270631           0.095772          -0.073566          -0.445216           0.251789          -0.252918           0.141678           0.104820           0.124644
hessian_block                3      12          -2.236583          -0.233145          -0.897226          -0.387111          -0.268784          -0.223050          -0.741672          -0.393553          -0.359330
hessian_block                4       4           5.965294           0.182492          -1.952624           0.182492           6.964986           1.557979          -1.952624           1.557979           4.903764
hessian_block                4       5          -0.476568           0.604288           0.208548           0.131372          -2.165135          -1.107143          -0.018289          -1.337294          -0.646095
hessian_block                4       6          -0.094228           0.311798           0.098009          -0.305684          -0.563429          -0.298548           0.216257          -0.475122          -0.145265
hessian_block                4       7          -1.978676          -0.828453           0.714387          -0.199923          -0.204579           0.298944           0.705009          -0.185042          -0.613519
hessian_block                4       8          -0.360875          -0.342133          -0.225927           0.041648          -0.489399          -0.110173          -0.210186           0.028410           0.014172
hessian_block                4       9          -0.307482           0.622509           0.136759           0.089728          -2.327685          -1.031578           0.022886          -0.861001          -0.563086
hessian_block                4      10          -0.362538          -0.271607          -0.125500          -0.067328           0.982406           0.422466           0.130616           0.675226           0.328385
hessian_block                4      11          -1.865370          -0.153887           0.842436          -0.864888          -1.366581          -0.233543           0.917309           0.034171          -0.525828
hessian_block                4      12          -0.071279           0.379680          -0.019071           0.404987           0.426934           0.199105           0.088445           0.283556           0.075634
hessian_block                5       5           5.324574          -0.252486          -1.101747          -0.252486           6.280094          -1.090345          -1.101747          -1.090345           7.535566
hessian_block                5       6           0.037688          -0.349333          -0.144588          -0.021802          -0.187315           0.572690          -0.083440          -0.461091           0.627249
hessian_block                5       7          -0.253247           1.131261          -0.111473          -0.970235           0.011410           0.395971           0.414345           0.675924          -0.837590
hessian_block                5       8          -0.009414           0.061362           0.532825           0.487321           0.095269          -0.465512           0.430783           0.571950          -0.800808
hessian_block                5       9          -1.413120          -0.488802           1.726134          -0.535683          -1.921114           2.276669           1.779310           2.396211          -3.249454
hessian_block                5      10           0.091309           0.509688           0.182140           0.251657           0.062342          -0.663263           0.239905          -0.147131          -0.893785
hessian_block                5      11           0.344904          -0.899284           0.235532           0.982561           0.177450           0.028174          -0.554900          -0.245001           1.079586
hessian_block                5      12           0.363476           0.431109          -0.387993          -0.509240          -0.623203           0.228370          -0.078846          -0.894017           0.667364
hessian_block                6       6           5.561854           0.353409           1.794862           0.353409           5.752117           1.772372           1.794862           1.772372           8.589719
hessian_block                6       7           0.019614          -0.127872          -0.070979           0.514031           0.257180           0.863555          -0.168217          -0.029794          -0.288321
hessian_block                6       8           0.053895           0.597441           0.352394          -0.053084           0.043443           0.195932          -0.154149          -0.302520          -0.820069
hessian_block                6       9           0.218508           0.275146           0.141013           0.293627           0.846431           0.282345          -0.117469          -0.209041          -0.655408
hessian_block                6      10          -1.822882          -1.233782          -2.794832          -1.056121          -2.077928          -3.073491          -2.109015          -2.458059          -4.313654
hessian_block                6      11           0.147980           0.311181          -0.120656          -0.782575           0.485410           0.147607          -0.212976           0.313899           0.626858
hessian_block                6      12           0.142034          -0.220692           0.001722           0.158601          -0.092314           0.268268           0.568881           0.366412           0.841007
hessian_block                7       7           5.447594           0.455180           1.247975           0.455180           6.148421          -1.521751           1.247975          -1.521751           7.715544
hessian_block                7       8          -0.133070          -0.016691           0.058450           0.151063          -0.460707           0.826123           0.363631          -0.666650           0.955389
hessian_block                7       9           0.300388           0.650966          -0.212959          -0.712094          -0.333562          -0.469672           0.465462          -0.534515           1.183013
hessian_block                7      10           0.226417          -0.662057           0.069447           0.138331          -0.459543          -0.378783          -0.377099          -0.923128           0.255338
hessian_block                7      11          -1.845243           0.509622          -1.870854           0.689463          -2.360089           2.872343          -1.612732           2.232074          -3.338049
hessian_block                7      12           0.259623          -0.139265           0.298572          -0.503530           0.566008          -0.731495          -0.605527           0.439778          -1.070264
hessian_block                8       8           5.095198          -0.027276          -0.973104          -0.027276           5.645411           1.416257          -0.973104           1.416257           7.188554
hessian_block                8       9           0.417371          -0.556040          -0.221831           0.359304           0.030959          -0.368660          -0.014472           0.489996           0.978051
hessian_block                8      10          -0.111914          -0.015598           0.368683          -0.932299          -0.278305           0.461538          -0.580057           0.005201           0.721089
hessian_block                8      11           0.320238          -0.312703          -0.262503           0.649877           1.096300           0.603875           0.348647          -0.606282          -0.927312
hessian_block                8      12          -1.022439           1.030414           1.687990           0.976310          -1.630600          -2.150946           1.419949          -1.992918          -3.209329
hessian_block                9       9           5.126546          -0.419158          -0.806190          -0.419158           6.558786          -1.571725          -0.806190          -1.571725           7.539870
hessian_block                9      10          -0.176402           0.210977           0.154991          -0.396371          -0.224467           0.089810          -0.482296          -0.234488           0.503393
hessian_block                9      11          -0.078373           0.903407          -0.348481          -0.674131           0.488088           0.712952           0.399121           0.275542          -0.958119
hessian_block                9      12           0.013922          -0.487890           0.513755           0.290229          -0.143920          -0.634347           0.031105           0.738798          -1.007018
hessian_block               10      10           5.699676           0.600517           1.726572           0.600517           7.026387           2.435490           1.726572           2.435490           8.282256
hessian_block               10      11          -0.081344          -0.021840           0.338732           0.434536          -1.327465          -0.150186          -0.046042          -0.628202          -0.758922
hessian_block               10      12          -0.203170           0.244135          -0.008039          -0.508741          -0.162352          -0.051000          -0.527751          -0.075058          -0.628345
hessian_block               11      11           5.443748           0.255367           0.991930           0.255367           7.895948          -1.325023           0.991930          -1.325023           7.492842
hessian_block               11      12          -0.146329          -0.052166          -0.329913           0.356716          -0.858893           0.560671           0.593763          -0.796355           0.693064
hessian_block               12      12           4.977196          -0.086988          -0.983282          -0.086988           5.667081           1.467623          -0.983282           1.467623           7.388141
hessian_block_lv             1       1          22.992836          -3.965174           4.734767          -3.965174          23.144046           2.306997           4.734767           2.306997           1.886587
hessian_block_lv_atom        1       1           0.320189           0.309016           0.059643          -0.463414          -0.354252          -0.154942          -0.037189          -0.059505           0.059455
hessian_block_lv_atom        1       2          -0.623547          -0.600483          -0.203546          -0.045876           0.046519           0.008901          -0.155544          -0.214640          -0.124718
hessian_block_lv_atom        1       3          -0.793003          -0.632781          -0.243190           0.318353           0.408462           0.110608          -0.157629          -0.161692          -0.003416
hessian_block_lv_atom        1       4           0.069735           0.120304          -0.005780           0.687298           0.745860           0.256878          -0.003149          -0.065440          -0.051398
hessian_block_lv_atom        1       5           0.284941           0.355457           0.366783          -0.072763           0.260880           0.255557          -1.846660          -2.532351          -1.448621
hessian_block_lv_atom        1       6           0.419085          -0.507803          -0.286439          -0.140614          -0.573684          -0.304577          -1.450539          -2.654174          -1.359536
hessian_block_lv_atom        1       7          -0.737707          -0.569660           0.115988          -0.579307          -1.044838          -0.522236           1.513260           2.192833           1.316386
hessian_block_lv_atom        1       8           0.195864          -0.038687          -0.238270           0.066766           0.203303           0.278532           1.584745           2.242882           1.356675
hessian_block_lv_atom        1       9           0.212828           0.111932          -0.206219          -0.369575          -0.706050          -0.393188           1.753856           2.500430           1.393942
hessian_block_lv_atom        1      10          -0.613604           0.436885           0.298244           0.079067           0.466406           0.317299           1.751458           2.988891           1.487126
hessian_block_lv_atom        1      11           0.796833           0.589624          -0.066290           0.381260           0.699662           0.391893          -1.627445          -2.283535          -1.402005
hessian_block_lv_atom        1      12           0.468391           0.426195           0.409076           0.138802          -0.152269          -0.244727          -1.325159          -1.953698          -1.223889
