# 
# This is the geometry file that corresponds to the current relaxation step.
# If you do not want this file to be written, set the "write_restart_geometry" flag to .false.
#  aims_uuid : 4F498479-621E-4675-AF11-F6784F18A286                                
# 
lattice_vector      5.83787692      0.00000000      0.00000000
lattice_vector      0.00000000      5.95040644      0.00000000
lattice_vector      0.00000000      0.00000000      7.51777938
atom_frac       0.50114269      0.00040971      0.00027686 Pd
atom_frac       0.00040808      0.00046659      0.50138197 Pd
atom_frac       0.00051634      0.50113962      0.00030291 Pd
atom_frac       0.50125373      0.50119660      0.50135646 Pd
atom_frac       0.61287771      0.11862200      0.40370571 Se
atom_frac       0.89028817      0.88374914      0.90433982 Se
atom_frac       0.11215075      0.38305467      0.59876424 Se
atom_frac       0.38942881      0.61938634      0.09790311 Se
atom_frac       0.38949067      0.88376302      0.59876943 Se
atom_frac       0.11214259      0.11869527      0.09792677 Se
atom_frac       0.89021901      0.61929984      0.40371585 Se
atom_frac       0.61288800      0.38302375      0.90436341 Se
# 
# What follows is the current estimated Hessian matrix constructed by the BFGS algorithm.
# This is NOT the true Hessian matrix of the system.
# If you do not want this information here, switch it off using the "hessian_to_restart_geometry" keyword.
# 
trust_radius             0.0122098505
hessian_block                1       1           6.364167          -1.029392          -2.593249          -1.029392           9.012828          -0.135042          -2.593249          -0.135042           5.163974
hessian_block                1       2          -1.072542           3.065171           0.999289          -0.570442           2.702956           0.823673          -0.561461           1.500357           0.533159
hessian_block                1       3          -1.526202           4.333679           1.443406           0.028697          -0.476993          -0.046595          -1.073658           2.455401           0.903700
hessian_block                1       4           0.520700           0.230439          -0.057729           0.404781          -0.958253          -0.307574           0.040491           0.137601           0.044757
hessian_block                1       5           0.577075          -2.121233          -0.817123          -1.715011           3.497939           1.463830          -0.045428          -0.430422          -0.025076
hessian_block                1       6           0.045554          -4.438435          -0.995815           2.121618          -4.746693          -1.833150           4.276771          -8.022223          -3.359042
hessian_block                1       7          -1.175709           2.273561           0.923325           0.548309          -0.815773          -0.267185           0.006474           0.160210           0.003838
hessian_block                1       8           0.426236          -2.281852          -0.320108          -0.001821          -2.864039           0.380354          -0.958406           3.297736           0.449306
hessian_block                1       9          -0.087333          -0.064023           0.156562           0.790395          -3.322496          -1.212512          -0.248278           0.341996           0.166407
hessian_block                1      10          -4.215911           5.679728           2.795857          -1.575400           4.028367           1.294331          -1.304896           5.027886           1.451803
hessian_block                1      11           1.238096          -3.379694          -1.207134           0.532823          -1.066150          -0.490286           0.278426          -0.346418          -0.007122
hessian_block                1      12           0.471781          -2.267952          -0.327282           0.465443          -3.344668           0.330153           2.183212          -3.987082          -2.223841
hessian_block                2       2           8.556322           2.603235           3.680800           2.603235           8.993777           2.894961           3.680800           2.894961           5.678140
hessian_block                2       3           4.473637           3.940334           2.305637          -0.686067          -0.566912          -0.324823           2.401258           2.072072           1.282485
hessian_block                2       4           0.174974           0.520808           0.083843          -1.080315          -0.155980          -0.169339           0.168261           0.467690           0.198585
hessian_block                2       5          -3.636172          -1.209709          -1.707898           3.706444           2.522007           1.892751          -1.225573          -0.614681          -0.886322
hessian_block                2       6          -4.859842          -4.272540          -2.459424          -4.437849          -4.597582          -2.623192          -7.674659          -7.065447          -4.290915
hessian_block                2       7           1.945475           1.163532           0.820935          -1.508976          -2.725409          -1.474335          -0.128289          -0.885571          -0.414051
hessian_block                2       8          -1.833054          -1.902675          -1.073011          -0.785425          -1.025909          -0.577828           2.438834           2.291642           1.485282
hessian_block                2       9          -2.114602           0.263728          -1.026812          -2.295201          -3.560448          -1.441260          -0.629583           0.534217          -0.214566
hessian_block                2      10           5.175042           4.171343           2.634552           4.338470           4.320864           2.716429           5.337524           5.195674           3.120500
hessian_block                2      11          -3.356753          -3.331163          -1.850160          -1.397971          -3.415512          -1.702725          -0.693286          -1.432855          -0.882475
hessian_block                2      12          -1.886575          -1.376450          -0.847000          -1.521516          -0.844826          -0.690994          -4.674576          -4.281378          -2.507957
hessian_block                3       3          11.650431          -0.829253           5.557483          -0.829253           6.228361          -1.471243           5.557483          -1.471243           6.800563
hessian_block                3       4           0.238178          -0.221264          -0.082061          -1.272860           0.299091          -0.635460           0.301460          -0.110835           0.138569
hessian_block                3       5          -2.721871           0.212060          -1.643675           4.581480          -0.061846           3.092167          -0.639646           0.160031          -0.278904
hessian_block                3       6          -7.073836           1.083954          -4.369953          -5.974846          -1.325742          -2.928033         -11.351277           1.673546          -7.237666
hessian_block                3       7           2.980568          -0.134404           1.953555          -1.421192           0.134902          -0.836534           0.050411          -0.047607           0.042970
hessian_block                3       8          -4.378813          -0.125185          -2.231953          -1.851464          -0.302280          -1.239021           2.699094          -0.558124           1.742003
hessian_block                3       9          -0.427972           0.375928           0.052543          -4.252038           0.214661          -2.629418           0.293763           0.136895           0.390329
hessian_block                3      10           7.208557          -0.036897           4.283275           6.888648          -2.453802           4.704929           7.500063           0.143410           4.138894
hessian_block                3      11          -4.536878           0.456246          -2.673143          -1.539949          -0.013501          -1.041712          -0.644169           0.152342          -0.335355
hessian_block                3      12          -4.319888          -0.123812          -2.173672          -2.602537          -0.028914          -1.543147          -7.516226           0.293004          -4.485723
hessian_block                4       4           5.890443           0.099856          -1.984543           0.099856           6.875579           1.424059          -1.984543           1.424059           4.867241
hessian_block                4       5          -0.404218           1.118542           0.185366           0.174218          -2.775619          -0.864720          -0.006944          -1.120819          -0.644720
hessian_block                4       6          -0.050197           1.288085          -0.178647          -0.192387           0.604584          -0.458732           0.367181           1.535745          -0.469898
hessian_block                4       7          -1.951471          -1.268851           0.820010          -0.273376          -0.068580           0.185130           0.846757           0.044521          -0.470152
hessian_block                4       8          -0.188142           0.293867          -0.225652           0.110388          -0.160739          -0.105932          -0.166788          -0.442994           0.199755
hessian_block                4       9          -0.277651           0.653819           0.126392           0.075569          -1.682752          -1.186224           0.106874          -0.807398          -0.438490
hessian_block                4      10          -0.447590          -1.495517           0.106659          -0.305315          -0.469197           0.471077          -0.018456          -0.849871           0.492944
hessian_block                4      11          -1.864601           0.482667           0.690941          -0.598833          -0.566118          -0.037004           0.880564           0.192128          -0.554050
hessian_block                4      12          -0.074514           0.775922          -0.050740           0.379893           0.705009           0.077889           0.031303           1.137001          -0.262676
hessian_block                5       5           6.195004          -2.572005          -0.805505          -2.572005          10.039404          -1.777296          -0.805505          -1.777296           7.707845
hessian_block                5       6           3.096659          -5.660292           0.667205           2.758161          -5.490687           1.349729           4.717609          -9.917974           2.022038
hessian_block                5       7          -1.658338           3.481413          -0.510783          -0.112511          -0.979647           0.511849           0.158978           0.601149          -1.052063
hessian_block                5       8           1.026484          -2.028440           0.767356           0.947958          -1.330442          -0.283335          -1.254429           3.544741          -1.430854
hessian_block                5       9          -1.266065          -0.457197           1.707666           1.495361          -5.338967           2.883103           1.332790           2.792045          -3.503174
hessian_block                5      10          -3.090435           6.379572          -0.590005          -2.362989           5.564876          -1.294959          -2.964399           6.443150          -1.805684
hessian_block                5      11           2.335698          -4.328201           0.841809           1.252258          -1.765481           0.124413          -0.217323          -0.934755           1.254393
hessian_block                5      12           1.112090          -1.561982          -0.160151           0.594106          -2.234513           0.492388           3.015612          -6.335089           1.744383
hessian_block                6       6          12.823564           7.500587          14.411966           7.500587          12.573727          13.868208          14.411966          13.868208          29.788214
hessian_block                6       7          -3.337571          -3.395764          -5.947665           1.995658           1.841836           3.584053          -0.138802          -0.340982          -0.821802
hessian_block                6       8           2.720261           3.011068           4.756612           1.785907           1.668075           3.011960          -4.227337          -4.375714          -8.065755
hessian_block                6       9           0.178067           0.268795           0.207780           5.106221           5.504436           8.731315          -0.650488          -0.984456          -2.053450
hessian_block                6      10          -9.789308          -8.922214         -16.254632          -8.286113          -8.722726         -14.817408         -10.784407         -10.701721         -18.669906
hessian_block                6      11           4.958806           4.983907           8.311237           1.479048           2.093870           3.053961           0.660916           1.214070           2.160076
hessian_block                6      12           2.853754           2.278924           4.179079           2.417920           2.243927           4.364262           8.064789           7.813975          14.099971
hessian_block                7       7           6.843333          -0.219417           1.259084          -0.219417           6.204103          -1.265219           1.259084          -1.265219           7.507274
hessian_block                7       8          -1.398101           0.648459          -0.284118          -0.712136           0.117099           0.606701           2.205997          -1.423977           1.042859
hessian_block                7       9           0.300680           0.572448          -0.187793          -2.765556           0.622003          -0.561638           0.762077          -0.434533           1.108027
hessian_block                7      10           3.895782          -2.327814           0.167550           3.489320          -2.170505           0.217203           3.719270          -2.812049           0.752349
hessian_block                7      11          -3.914339           1.534710          -1.954333          -0.358262          -1.410986           2.079858          -2.022665           2.318904          -3.438451
hessian_block                7      12          -0.964397           0.563702           0.204081          -1.553436           0.897983          -0.608625          -3.983140           1.913895          -1.158933
hessian_block                8       8           5.650457           0.562843          -2.613198           0.562843           5.858572           0.372329          -2.613198           0.372329           9.635664
hessian_block                8       9           0.296910          -0.448924          -0.245130           2.128523           1.273432          -3.133205          -0.421839           0.174515           1.445383
hessian_block                8      10          -2.897796          -1.915974           4.774893          -3.026982          -1.766051           4.623231          -3.485177          -1.853943           5.721827
hessian_block                8      11           2.091898           0.882386          -2.976670           0.853240           1.117299          -0.812209           0.724597          -0.383248          -1.519429
hessian_block                8      12           0.049569           1.426262           0.323141           1.867133          -0.937992          -3.383456           4.406492          -0.102551          -7.604178
hessian_block                9       9           5.012443          -0.448234          -0.749937          -0.448234           9.597741          -2.055664          -0.749937          -2.055664           7.587954
hessian_block                9      10          -0.166733          -5.022278           0.811042          -0.365059          -4.953497           1.023333          -0.530941          -6.069134           1.536173
hessian_block                9      11          -0.088478           3.928245          -0.820257          -0.573157           1.968705          -0.014445           0.415922           0.906306          -1.143263
hessian_block                9      12           0.206647           1.258993           0.213838           0.221877           1.324207          -0.706508           0.073748           5.768331          -1.779466
hessian_block               10      10          14.290012           8.178501          10.883873           8.178501          13.127270          10.258396          10.883873          10.258396          17.943853
hessian_block               10      11          -5.356203          -4.781431          -5.524471          -1.643990          -2.267051          -1.859883          -0.914296          -1.474409          -1.797724
hessian_block               10      12          -3.039507          -2.191652          -2.827983          -3.044462          -2.591521          -2.921916          -8.698769          -7.722155          -9.783166
hessian_block               11      11           8.454031           1.672146           1.635460           1.672146           6.841773          -1.043082           1.635460          -1.043082           7.634879
hessian_block               11      12           1.604634           0.322647          -0.104145           1.880180           0.130174           0.831019           5.526723           1.743114           1.730385
hessian_block               12      12           5.552317           0.895399           1.570835           0.895399           6.328158           3.758935           1.570835           3.758935          15.333065
hessian_block_lv             1       1          26.425562          -1.776106           6.835835          -1.776106          24.740923           3.680683           6.835835           3.680683           3.272274
hessian_block_lv_atom        1       1          -1.301955          -0.692091          -0.834323           3.211613           2.194744           2.141685           1.492215           0.969976           0.877966
hessian_block_lv_atom        1       2           3.259052           1.936536           2.059438           4.097075           2.519382           2.091744           2.205094           1.166213           1.140069
hessian_block_lv_atom        1       3           4.850038           2.934410           2.977764          -0.571003          -0.036789          -0.219773           3.325524           2.039387           1.949502
hessian_block_lv_atom        1       4           0.153985           0.105654          -0.006313           0.248719           0.219930          -0.287233           0.400103           0.144437           0.087016
hessian_block_lv_atom        1       5          -2.309103          -1.392996          -1.062732           4.114252           3.065758           2.956033          -2.360204          -2.974165          -1.771202
hessian_block_lv_atom        1       6          -5.307548          -4.141116          -3.855630          -6.015826          -4.309286          -3.823299         -11.347206          -9.152307          -7.361378
hessian_block_lv_atom        1       7           2.175865           1.269280           1.852190          -1.438806          -1.475644          -1.188352           0.817234           2.143234           1.271368
hessian_block_lv_atom        1       8          -2.343976          -1.352328          -1.613346          -1.581148          -0.962914          -0.573290           4.689328           4.583373           3.324084
hessian_block_lv_atom        1       9           0.165220           0.240860          -0.251899          -4.638640          -3.461821          -2.864835           1.648911           2.752802           1.625003
hessian_block_lv_atom        1      10           5.663591           4.270101           4.123265           6.301544           4.144281           3.817006           8.389503           7.273926           5.509233
hessian_block_lv_atom        1      11          -3.435340          -2.147478          -2.584814          -2.360871          -0.838834          -0.680350          -2.008552          -2.692111          -1.719984
hessian_block_lv_atom        1      12          -1.569825          -1.030832          -0.803600          -1.366912          -1.058809          -1.369337          -7.251948          -6.254764          -4.931679
symmetry_n_params 39 3 36
symmetry_params a1 b2 c3 x0 x1 x2 x3 x4 x5 x6 x7 x8 x9 x10 x11 x12 x13 x14 x15 x16 x17 x18 x19 x20 x21 x22 x23 x24 x25 x26 x27 x28 x29 x30 x31 x32 x33 x34 x35
symmetry_lv a1 , 0 , 0 
symmetry_lv 0 , b2 , 0 
symmetry_lv 0 , 0 , c3
symmetry_frac x0 , x1 , x2
symmetry_frac x3 , x4 , x5
symmetry_frac x6 , x7 , x8
symmetry_frac x9 , x10 , x11
symmetry_frac x12 , x13 , x14
symmetry_frac x15 , x16 , x17
symmetry_frac x18 , x19 , x20
symmetry_frac x21 , x22 , x23
symmetry_frac x24 , x25 , x26
symmetry_frac x27 , x28 , x29
symmetry_frac x30 , x31 , x32
symmetry_frac x33 , x34 , x35
