# 
# This is the geometry file that corresponds to the current relaxation step.
# If you do not want this file to be written, set the "write_restart_geometry" flag to .false.
#  aims_uuid : F7C73689-1D2F-4CD6-AF88-3B385819DCCC                                
# 
lattice_vector      5.83806417      0.00000000      0.00000000
lattice_vector      0.00000000      5.95002483      0.00000000
lattice_vector      0.00000000      0.00000000      7.54822901
atom_frac       0.50163450      0.00165551      0.00151566 Pd
atom_frac       0.00166850      0.00166162      0.50182389 Pd
atom_frac       0.00172709      0.50163535      0.00149205 Pd
atom_frac       0.50169641      0.50164431      0.50184874 Pd
atom_frac       0.61375804      0.12007650      0.40524676 Se
atom_frac       0.88967826      0.88330491      0.90513129 Se
atom_frac       0.11370898      0.38332318      0.59826114 Se
atom_frac       0.38962701      0.62006293      0.09808989 Se
atom_frac       0.38964015      0.88331954      0.59825224 Se
atom_frac       0.11371547      0.12010007      0.09810251 Se
atom_frac       0.88959823      0.62005165      0.40525393 Se
atom_frac       0.61369237      0.38330949      0.90512696 Se
# 
# What follows is the current estimated Hessian matrix constructed by the BFGS algorithm.
# This is NOT the true Hessian matrix of the system.
# If you do not want this information here, switch it off using the "hessian_to_restart_geometry" keyword.
# 
trust_radius             0.0976882864
hessian_block                1       1           6.153013           0.034972          -2.059383           0.034972           6.285242          -1.088773          -2.059383          -1.088773           4.911980
hessian_block                1       2          -0.032986           0.442923           0.018037           0.561465           0.309349           0.028863           0.135289          -0.025532           0.093499
hessian_block                1       3          -0.077334           0.562230          -0.063505          -0.099514          -0.227954           0.062024           0.078995           0.094391           0.169484
hessian_block                1       4           0.611719           0.303900           0.000500           0.313539          -0.380797          -0.074586           0.166005          -0.029755           0.080882
hessian_block                1       5           0.136166          -0.692061          -0.190999          -0.157640          -0.151890           0.346735          -0.327350           0.319677           0.382388
hessian_block                1       6          -2.267420           0.348659           0.329877           0.170522          -0.147920          -0.148322           0.814703           0.050328          -0.651481
hessian_block                1       7          -0.400177           0.115835           0.139616          -0.143226           0.522299           0.009068          -0.144029          -0.187213          -0.230894
hessian_block                1       8          -0.157069          -0.594483           0.528352          -0.376319          -1.978000           0.795333           0.011372           0.667445          -0.493430
hessian_block                1       9          -0.221563           0.123373           0.274698          -0.824704          -0.067857          -0.397519          -0.118471          -0.454047          -0.195563
hessian_block                1      10          -1.975295           0.553029           1.158155           0.371264          -0.600700          -0.532863           1.068282          -0.534201          -0.627865
hessian_block                1      11          -0.088263          -0.297507          -0.247495           0.268765          -0.230550           0.102221           0.136707           0.389157           0.435499
hessian_block                1      12          -0.114880          -0.900867           0.112150          -0.119124          -1.684200           0.897814           0.237879           0.798517          -0.772633
hessian_block                2       2           6.084601           0.195303           2.212024           0.195303           6.532243           1.402822           2.212024           1.402822           4.694512
hessian_block                2       3           0.895987           0.394360           0.158469          -0.483787          -0.236093          -0.155529           0.103955           0.054504           0.100254
hessian_block                2       4           0.308455           0.580658           0.142129          -0.663802           0.118920           0.066412          -0.048758           0.188046          -0.040360
hessian_block                2       5          -2.392951           0.199527          -0.757558           0.076090          -0.488866           0.060930          -0.375408           0.090437          -0.626202
hessian_block                2       6          -0.320602          -0.429534          -0.101247           0.190264          -0.428314          -0.109251           0.131474          -0.003559          -0.050071
hessian_block                2       7          -0.229592          -0.795156          -0.423408          -0.156359          -1.738862          -0.923884          -0.480519          -1.105484          -0.545442
hessian_block                2       8          -0.213157          -0.059233          -0.055183           0.139879          -0.131252          -0.048211          -0.203949          -0.241161          -0.071749
hessian_block                2       9          -1.914880           0.447140          -1.012274           1.054973          -0.693693           0.317800          -1.462626          -0.087433          -0.520730
hessian_block                2      10           0.318220          -0.111662           0.029474          -0.337615          -0.020502           0.214546          -0.049515           0.308234           0.325833
hessian_block                2      11          -0.295975          -0.620983          -0.162560          -0.506966          -2.080181          -0.935084           0.157188          -0.708866          -0.529391
hessian_block                2      12          -0.641208          -0.361884          -0.165160           0.049096           0.504275           0.134982          -0.001903           0.073596           0.271715
hessian_block                3       3           6.538391          -0.482592           2.170092          -0.482592           6.261111          -1.244750           2.170092          -1.244750           4.967149
hessian_block                3       4           0.385690          -0.265541           0.073572          -0.685463           0.405130          -0.089280          -0.044477          -0.037177           0.047676
hessian_block                3       5          -0.920947           0.212889          -0.208608          -0.638044           0.423514           0.224112           0.476321          -0.077851           0.395381
hessian_block                3       6          -0.419867           0.659369          -0.874418           0.520841          -2.055116           0.979516          -0.135480           0.773447          -0.761393
hessian_block                3       7          -0.122944           0.193765          -0.004602           0.535359          -0.071479          -0.025773          -0.334909           0.027635          -0.399076
hessian_block                3       8          -2.125440          -0.423427          -0.568110          -0.573332          -0.429933          -0.363793          -1.116801          -0.166750          -0.609118
hessian_block                3       9          -0.172157           0.290646           0.183519           0.675292          -0.305479          -0.218172          -0.784463           0.321041          -0.315106
hessian_block                3      10           0.174563           0.444063           0.272824           0.358447          -1.675231           0.719448          -0.113261           0.822482          -0.426644
hessian_block                3      11          -0.071463           0.057133          -0.144876          -0.293150          -0.213689           0.068115           0.439550          -0.086275           0.470827
hessian_block                3      12          -2.518568          -0.103002          -1.082343          -0.373948          -0.227757          -0.198316          -0.651535          -0.238298          -0.537571
hessian_block                4       4           6.015363           0.026053          -2.023809           0.026053           6.691490           1.406211          -2.023809           1.406211           4.770682
hessian_block                4       5          -0.451554           1.079004           0.394945           0.272375          -1.684058          -0.959705           0.116954          -1.432671          -0.700172
hessian_block                4       6          -0.443194          -0.017293           0.017630          -0.300187          -0.541926          -0.171777           0.177511          -0.413529          -0.013863
hessian_block                4       7          -1.915909          -0.766964           0.681238          -0.310706          -0.615534           0.148135           0.643898           0.287733          -0.395354
hessian_block                4       8          -0.319177           0.156613           0.042315           0.175153          -0.301756          -0.058925          -0.271907           0.070394           0.027552
hessian_block                4       9          -0.373908           0.585833           0.130228          -0.016994          -2.548659          -1.040326          -0.086095          -0.405411          -0.371149
hessian_block                4      10          -0.144227          -0.200310          -0.162282          -0.219950           0.613973           0.143621           0.115906           0.531490           0.221654
hessian_block                4      11          -2.016046          -0.248038           0.874264          -0.540114          -0.313504           0.247861           1.079721          -0.099521          -0.594348
hessian_block                4      12          -0.091298           0.420827          -0.027295           0.295352           0.203744           0.163786           0.031621           0.152759           0.068665
hessian_block                5       5           5.915624          -0.069255          -1.573348          -0.069255           6.051768          -1.251803          -1.573348          -1.251803           7.587041
hessian_block                5       6          -0.006065          -0.200865          -0.220944          -0.116280           0.006755           0.657041          -0.347390          -0.366923           0.430947
hessian_block                5       7          -0.341906           0.922079          -0.084668          -1.371694           0.060550           0.626263           0.514623           0.346614          -1.034151
hessian_block                5       8           0.065175           0.045657           0.339846           0.625800           0.122259          -0.504191           0.481396           0.476553          -0.640803
hessian_block                5       9          -1.521001          -0.430050           1.779409          -0.944060          -2.017084           2.349933           2.134105           2.238897          -3.535721
hessian_block                5      10           0.072860           0.351907           0.325469           0.556808           0.101380          -0.688504           0.484578          -0.169909          -0.726701
hessian_block                5      11           0.364384          -0.774136           0.132422           1.107347          -0.252865          -0.368531          -0.891286          -0.274078           1.153000
hessian_block                5      12           0.646126           0.601882          -0.588703          -0.588024          -0.524441           0.280198          -0.040457          -0.671421           0.416854
hessian_block                6       6           5.910027           0.154827           1.814549           0.154827           5.658567           1.419983           1.814549           1.419983           8.080965
hessian_block                6       7           0.332191           0.089668           0.394944           0.500146           0.214043           0.894514           0.723521          -0.148832           0.144116
hessian_block                6       8          -0.100623           0.342450          -0.318503          -0.047164           0.088923           0.354780           0.220620          -0.174314          -0.230211
hessian_block                6       9           0.221897           0.165651           0.041876           0.590964           0.521138           0.154871           0.611900          -0.270997          -0.286537
hessian_block                6      10          -1.902799          -0.984023          -2.514710          -1.026939          -1.782459          -2.601015          -2.167886          -2.446471          -3.996069
hessian_block                6      11           0.212561          -0.040756          -0.407514          -0.476303           0.236620          -0.260275          -0.592440           0.451382           0.286436
hessian_block                6      12           0.349804          -0.192977           0.348543          -0.055867          -0.123288          -0.002620           0.238840          -0.037960           0.149027
hessian_block                7       7           5.543337           0.715253           1.312075           0.715253           6.275399          -1.200693           1.312075          -1.200693           7.569276
hessian_block                7       8          -0.421951          -0.162184          -0.389515           0.325949          -0.409857           0.652995           0.478956          -0.413984           0.816813
hessian_block                7       9           0.331700           0.702347          -0.276279          -0.500068          -0.123412          -0.270712           0.445350          -0.455717           1.170123
hessian_block                7      10           0.013730          -0.538144          -0.456488          -0.096598          -0.667060           0.219034          -0.703282          -1.004418           0.088529
hessian_block                7      11          -1.831045           0.413418          -1.718288           0.429058          -2.209873           1.925739          -1.663625           2.260985          -3.551412
hessian_block                7      12           0.608481          -0.184210           0.605908          -0.632821           0.410812          -0.546817          -0.572594           0.085504          -0.530661
hessian_block                8       8           5.320279          -0.443095          -1.014242          -0.443095           5.896741           1.391809          -1.014242           1.391809           7.018995
hessian_block                8       9           0.479974          -0.725547          -0.189051          -0.094645          -0.111213          -0.247588          -0.158548           0.382755           0.818578
hessian_block                8      10          -0.041105           0.032809           0.075748          -0.330221          -0.133923           0.387771          -0.117569          -0.127473           0.208034
hessian_block                8      11           0.414074          -0.550320          -0.298648           0.123043           0.837105           0.347581           0.363308          -0.561379          -0.830851
hessian_block                8      12          -1.335067           1.416183           1.826506           1.439526          -1.802072          -2.097754           1.347851          -1.913699          -2.911945
hessian_block                9       9           5.173524          -0.487897          -0.858589          -0.487897           6.850638          -1.504039          -0.858589          -1.504039           7.704868
hessian_block                9      10          -0.169337           0.206229          -0.341334          -0.264884           0.157815           0.537306          -0.458698          -0.033434           0.354364
hessian_block                9      11          -0.127478           0.888254          -0.167036          -0.811608           0.146127           0.203167           0.441294           0.220537          -1.233333
hessian_block                9      12          -0.140858          -0.547344           0.785811           0.404994          -0.161299          -0.505522          -0.056132           0.668647          -0.487929
hessian_block               10      10           5.599892           0.377186           1.562652           0.377186           6.195724           2.223302           1.562652           2.223302           8.195549
hessian_block               10      11          -0.094020           0.372571           0.627355           0.302040          -0.206594           0.354593           0.258179          -0.781912          -0.537632
hessian_block               10      12          -0.286570           0.239930          -0.248564          -0.433121          -0.335400           0.075806          -0.207688           0.159269           0.022812
hessian_block               11      11           5.482963           0.319986           0.871307           0.319986           6.367418          -1.371289           0.871307          -1.371289           7.636077
hessian_block               11      12          -0.383779           0.077904          -0.599901           0.480380          -0.432990           0.561260           0.641070          -0.314097           0.396995
hessian_block               12      12           5.473732          -0.466438          -0.966952          -0.466438           5.819641           1.237184          -0.966952           1.237184           7.016538
hessian_block_lv             1       1          24.515860           1.002135           5.030846           1.002135          22.887002           3.144842           5.030846           3.144842           1.885803
hessian_block_lv_atom        1       1           0.632244          -0.125442           0.059187          -1.197315          -0.424800          -0.333500          -1.022651           0.021571          -0.183695
hessian_block_lv_atom        1       2          -1.728262          -0.848248          -0.443727          -0.511634          -0.349335          -0.128876           0.518625          -1.035570          -0.025416
hessian_block_lv_atom        1       3          -2.002473          -0.806010          -0.501995           0.974314           0.549282           0.216141          -1.091996          -0.660807          -0.268450
hessian_block_lv_atom        1       4          -0.134612          -0.492477          -0.147006           1.559669           0.694155           0.430003           0.741591          -0.240036           0.106900
hessian_block_lv_atom        1       5           1.273336           0.390632           0.657446          -0.180265          -0.678081           0.212296          -2.424936          -2.666978          -1.520699
hessian_block_lv_atom        1       6           0.481375           1.488006           0.070630          -0.379501          -0.434097          -0.391016          -2.697233          -1.056448          -1.259582
hessian_block_lv_atom        1       7          -1.653668          -0.894283          -0.052816          -1.698727          -0.304140          -0.648904           2.486720           2.376722           1.421702
hessian_block_lv_atom        1       8           0.663899           0.615770          -0.082232           0.178885          -0.742823           0.184756           1.817618           1.835916           1.222413
hessian_block_lv_atom        1       9           0.343174           0.346297          -0.199591          -0.428886           0.470639          -0.316614           3.134673           2.508542           1.593129
hessian_block_lv_atom        1      10          -0.743030          -1.202839          -0.003456           0.389486           0.348109           0.509203           2.528208           2.277545           1.406252
hessian_block_lv_atom        1      11           1.918761           1.520049           0.192744           1.267961           0.095502           0.439139          -2.221321          -2.716354          -1.503706
hessian_block_lv_atom        1      12           0.949252           0.008544           0.450817           0.026012           0.775590          -0.172628          -1.769297          -0.644099          -0.988848
