# 
# This is the geometry file that corresponds to the current relaxation step.
# If you do not want this file to be written, set the "write_restart_geometry" flag to .false.
#  aims_uuid : 76CF67A9-83A4-4863-A944-09F2E62AF020                                
# 
lattice_vector      5.83681527      0.00000000      0.00000000
lattice_vector      0.00000000      5.94976887      0.00000000
lattice_vector      0.00000000      0.00000000      7.52487887
atom_frac       0.50125442      0.00071000      0.00052439 Pd
atom_frac       0.00068817      0.00071642      0.50152374 Pd
atom_frac       0.00079305      0.50128284      0.00054958 Pd
atom_frac       0.50135697      0.50128939      0.50149723 Pd
atom_frac       0.61299337      0.11890194      0.40392129 Se
atom_frac       0.89021467      0.88373908      0.90430508 Se
atom_frac       0.11240868      0.38317262      0.59887191 Se
atom_frac       0.38960469      0.61946893      0.09812273 Se
atom_frac       0.38963769      0.88374680      0.59887239 Se
atom_frac       0.11244359      0.11891537      0.09813818 Se
atom_frac       0.89019713      0.61945978      0.40392408 Se
atom_frac       0.61297842      0.38316771      0.90432028 Se
# 
# What follows is the current estimated Hessian matrix constructed by the BFGS algorithm.
# This is NOT the true Hessian matrix of the system.
# If you do not want this information here, switch it off using the "hessian_to_restart_geometry" keyword.
# 
trust_radius             0.0122110358
hessian_block                1       1           6.030608          -0.179578          -2.325629          -0.179578           6.902176          -0.842796          -2.325629          -0.842796           4.952795
hessian_block                1       2          -0.261322           1.194485           0.406553           0.152833           1.144313           0.257250          -0.100338           0.532737           0.170196
hessian_block                1       3          -0.338101           1.633783           0.538478          -0.050482          -0.441163          -0.086647          -0.392993           0.821471           0.364344
hessian_block                1       4           0.494236           0.383121          -0.004997           0.191657          -0.367572          -0.204002           0.107207           0.064271          -0.017533
hessian_block                1       5           0.069663          -1.071637          -0.519029          -0.694614           0.683792           0.486130          -0.282177           0.232997           0.339606
hessian_block                1       6          -1.366902          -0.804846           0.343903           0.686992          -1.304133          -0.515003           1.802115          -1.876386          -0.968546
hessian_block                1       7          -0.552249           0.566507           0.406132           0.213958           0.260290           0.202707           0.133072          -0.500408          -0.311524
hessian_block                1       8          -0.035208          -1.130779           0.096855          -0.358947          -2.272701           0.637664          -0.146391           1.078595          -0.412293
hessian_block                1       9          -0.118486           0.020911           0.199161          -0.105219          -0.928303          -0.328164          -0.022844          -0.553581          -0.291143
hessian_block                1      10          -2.684066           1.746177           1.375664          -0.157311           0.759620           0.041610           0.459158           0.768856          -0.281903
hessian_block                1      11           0.371908          -1.096086          -0.494633           0.240832          -0.787595          -0.415458           0.017576           0.419046           0.358626
hessian_block                1      12          -0.044171          -1.262055          -0.022458           0.059879          -2.001700           0.766705           0.751244          -0.144806          -0.800760
hessian_block                2       2           6.962413           1.175265           2.764808           1.175265           7.480219           1.997393           2.764808           1.997393           5.145072
hessian_block                2       3           2.105535           1.822250           0.979927          -0.727708          -0.473760          -0.224930           0.979479           0.797550           0.482030
hessian_block                2       4           0.387066           0.631796           0.155289          -0.673640           0.005525           0.012882           0.035657           0.260888           0.103408
hessian_block                2       5          -2.815611          -0.448425          -1.185881           1.073205           0.410843           0.623822          -0.436978           0.095409          -0.588337
hessian_block                2       6          -1.674619          -1.561066          -0.913659          -1.136849          -1.823033          -1.015952          -1.953671          -2.018767          -1.486645
hessian_block                2       7           0.361510          -0.095016          -0.005205          -0.422585          -1.813084          -1.013220          -0.881031          -1.397330          -0.615451
hessian_block                2       8          -0.769059          -0.874795          -0.468239          -0.203077          -0.492618          -0.262835           0.276424           0.301545           0.393358
hessian_block                2       9          -2.025231           0.351567          -0.979262          -0.031586          -1.521624          -0.276695          -1.643511          -0.243438          -0.521434
hessian_block                2      10           1.656764           1.182044           0.894184           1.142394           1.547801           1.089283           1.327786           1.660989           1.210741
hessian_block                2      11          -1.309576          -1.609398          -0.751363          -1.117127          -2.914100          -1.348981           0.230390          -0.675638          -0.511841
hessian_block                2      12          -1.051958          -0.727055          -0.390262          -0.272778           0.096541          -0.113503          -1.105907          -1.035852          -0.679231
hessian_block                3       3           8.180485          -0.802914           3.466435          -0.802914           6.313783          -1.483721           3.466435          -1.483721           5.537146
hessian_block                3       4           0.509531          -0.305983           0.061733          -0.655221           0.436752          -0.283775           0.117362          -0.014110           0.031467
hessian_block                3       5          -1.460913           0.317291          -0.894656           0.846773           0.144796           0.842463           0.411101          -0.110877           0.375509
hessian_block                3       6          -2.494515           1.026102          -1.486841          -1.355152          -1.695780          -0.104133          -3.202069           1.161797          -2.166018
hessian_block                3       7           0.697046          -0.040076           0.644003           0.067433          -0.037523           0.139366          -0.939451           0.174537          -0.581442
hessian_block                3       8          -2.827473          -0.196216          -1.291339          -1.040144          -0.391904          -0.734181          -0.407856          -0.271658          -0.161474
hessian_block                3       9          -0.304554           0.364543           0.141184          -1.012273          -0.003763          -0.662252          -1.044071           0.439697          -0.463102
hessian_block                3      10           2.151638           0.100750           1.154966           2.400745          -2.031874           1.992852           1.838203           0.567825           0.584207
hessian_block                3      11          -1.551056           0.397453          -0.929979          -1.065399          -0.066037          -0.834110           0.589185          -0.152795           0.405470
hessian_block                3      12          -3.101711          -0.082760          -1.451993          -0.839882          -0.106504          -0.491528          -2.347243           0.000880          -1.306275
hessian_block                4       4           5.938467          -0.027404          -2.007690          -0.027404           6.599152           1.396338          -2.007690           1.396338           4.826968
hessian_block                4       5          -0.593214           0.941882           0.290468           0.235065          -1.859958          -0.888086           0.086204          -1.351533          -0.658964
hessian_block                4       6          -0.281630           0.305299          -0.135180          -0.317468          -0.446544          -0.372216           0.127346          -0.093108          -0.322952
hessian_block                4       7          -1.883507          -0.718336           0.748131          -0.191334          -0.414390           0.122197           0.720822           0.414589          -0.355320
hessian_block                4       8          -0.245672           0.080406          -0.129942           0.046472          -0.305929          -0.057520          -0.198873           0.085049           0.130092
hessian_block                4       9          -0.279836           0.638604           0.126348           0.056076          -2.275829          -1.086130          -0.040120          -0.382719          -0.329876
hessian_block                4      10          -0.224368          -0.407059           0.029022          -0.183821           0.469014           0.323896           0.147665           0.304997           0.411838
hessian_block                4      11          -2.002270          -0.150239           0.814853          -0.701979          -0.411853           0.188347           0.993153          -0.126367          -0.580708
hessian_block                4      12          -0.252891           0.474051           0.003765           0.375459           0.218655           0.062122          -0.040531           0.227650          -0.136555
hessian_block                5       5           5.912721          -0.880218          -1.462572          -0.880218           6.730646          -1.339734          -1.462572          -1.339734           7.789456
hessian_block                5       6           1.249626          -0.925832          -0.293727           0.735610          -1.246415           0.659844           1.259648          -2.260049           0.513606
hessian_block                5       7          -0.616811           1.526248          -0.225842          -0.889655           0.207710           0.505178           0.846354           0.228882          -1.318971
hessian_block                5       8           0.330207          -0.632766           0.460364           0.693742          -0.406304          -0.601611           0.190121           1.078560          -0.973868
hessian_block                5       9          -1.378845          -0.391901           1.743996           0.056474          -2.545150           2.386456           2.208895           2.206278          -3.759807
hessian_block                5      10          -1.000769           1.351189           0.395429          -0.383503           1.576499          -0.627108          -0.530919           1.155389          -0.788591
hessian_block                5      11           1.063203          -1.565876           0.293848           1.203069          -1.287995          -0.285117          -0.983646          -0.403377           1.388100
hessian_block                5      12           0.806653           0.058727          -0.689646          -0.274630          -0.761441           0.436094           0.781217          -1.730278           0.784124
hessian_block                6       6           6.544422           1.755655           4.110866           1.755655           7.454666           4.361050           4.110866           4.361050          12.687139
hessian_block                6       7          -0.490064          -0.717736          -1.127854           0.137606           0.380504           0.918774           0.821740           0.268565           0.298437
hessian_block                6       8           0.806879           1.093326           1.321190           0.747317           0.736928           1.121079          -0.511361          -0.960118          -1.855170
hessian_block                6       9           0.070853           0.154811          -0.004952           0.994717           1.804897           1.888866           0.685223          -0.104564          -0.332236
hessian_block                6      10          -3.075105          -2.694312          -5.173920          -2.925675          -3.795342          -5.712000          -3.703195          -4.284198          -6.924613
hessian_block                6      11           1.123670           1.270267           1.694685           1.044498           1.334478           1.565201          -0.468279           0.383905           0.448445
hessian_block                6      12           1.153296           0.524857           1.146616           0.206225           0.246796           0.943544           1.550511           1.682817           3.210419
hessian_block                7       7           5.768758           0.524325           1.004126           0.524325           5.878465          -1.380628           1.004126          -1.380628           7.914050
hessian_block                7       8          -0.639060           0.061008          -0.092568          -0.044564          -0.190557           0.923527           0.747620          -0.602275           0.937084
hessian_block                7       9           0.303503           0.554092          -0.240905          -1.154114          -0.459677          -0.252392           0.359553          -0.489774           1.546238
hessian_block                7      10           0.845272          -0.433511          -0.746160           0.955304          -0.809235          -0.289031           0.345303          -1.005597          -0.016968
hessian_block                7      11          -2.375116           0.419076          -1.454831          -0.076949          -1.736141           2.385462          -1.669655           2.335698          -3.767177
hessian_block                7      12           0.146631          -0.040414           0.828831          -0.725593           0.380663          -0.575776          -1.226314           0.267575          -0.627088
hessian_block                8       8           5.084361           0.070677          -1.392967           0.070677           5.823622           1.256914          -1.392967           1.256914           7.589087
hessian_block                8       9           0.308385          -0.517227          -0.203557           0.834411           0.450879          -0.826114          -0.093104           0.570431           1.089750
hessian_block                8      10          -0.833572          -0.705079           0.852371          -1.164951          -0.788145           1.325279          -1.075722          -0.611476           1.347479
hessian_block                8      11           1.016499           0.016667          -0.815738           0.535608           0.938826          -0.040209           0.363238          -0.739440          -1.092904
hessian_block                8      12          -0.630375           1.294162           1.610207           1.324072          -1.455073          -2.425566           2.302234          -1.502550          -3.889275
hessian_block                9       9           5.059555          -0.508258          -0.799425          -0.508258           7.036578          -1.496187          -0.799425          -1.496187           8.054298
hessian_block                9      10          -0.049776          -0.669083          -0.492466          -0.252417          -1.436212           0.257769          -0.392050          -1.316254           0.373966
hessian_block                9      11          -0.111968           1.577455          -0.082294          -0.630722           1.405567           0.405492           0.443544           0.392984          -1.465328
hessian_block                9      12           0.092313          -0.038601           0.964165           0.215998           0.119661          -0.609404          -0.034082           1.575881          -0.799462
hessian_block               10      10           7.088702           2.307197           3.240945           2.307197           8.285491           4.104897           3.240945           4.104897           9.954895
hessian_block               10      11          -1.230242          -1.268602          -0.885732          -1.021722          -1.358028          -0.804526           0.253024          -0.647979          -0.638139
hessian_block               10      12          -1.078566          -0.469360          -0.771443          -0.756590          -0.772565          -0.540903          -1.783060          -1.859467          -2.131047
hessian_block               11      11           6.311445           1.320460           0.983162           1.320460           6.580976          -1.508775           0.983162          -1.508775           7.820687
hessian_block               11      12           0.259414           0.269433          -0.751690           0.688824          -0.051074           0.722739           1.628023           0.692673           0.736636
hessian_block               12      12           5.267277          -0.000982          -0.476091          -0.000982           5.733067           1.825476          -0.476091           1.825476           8.740380
hessian_block_lv             1       1          26.802482          -1.092860           5.578892          -1.092860          25.690015           2.804730           5.578892           2.804730           2.298070
hessian_block_lv_atom        1       1           0.017805           0.291513          -0.154102          -0.274199          -0.366650           0.288310          -0.276637          -0.240351           0.097407
hessian_block_lv_atom        1       2          -0.679631          -1.038450           0.232162           0.394543           0.012343           0.551218           0.468690          -0.148469           0.359116
hessian_block_lv_atom        1       3          -0.571096          -1.041620           0.438536           0.588366           0.809411           0.077584          -0.198897          -0.544505           0.350673
hessian_block_lv_atom        1       4          -0.265257          -0.262205          -0.053912           1.222368           1.132011           0.329128           0.514389           0.333938           0.138210
hessian_block_lv_atom        1       5           0.655474           0.664263           0.172832           0.591827          -0.074282           0.870540          -2.080042          -2.698359          -1.495498
hessian_block_lv_atom        1       6          -0.027638          -0.081481          -0.854305          -1.397890          -0.962846          -1.252905          -3.080282          -3.177433          -2.666703
hessian_block_lv_atom        1       7          -0.492419          -1.211084           0.451635          -1.277568          -1.248392          -0.670265           1.710867           2.528525           1.192979
hessian_block_lv_atom        1       8          -0.030938           0.758499          -0.583950          -0.327626          -0.543089          -0.026395           1.906670           2.377517           1.677937
hessian_block_lv_atom        1       9           0.192192           0.450255          -0.208813          -1.108999          -0.644679          -0.982143           2.294531           3.011845           1.437487
hessian_block_lv_atom        1      10           0.050693          -0.122041           0.944527           1.528198           0.574214           1.388172           2.708956           3.288353           2.283020
hessian_block_lv_atom        1      11           0.605967           1.420892          -0.588959           0.165433           0.818419          -0.097461          -1.945649          -2.539019          -1.444840
hessian_block_lv_atom        1      12           0.544846           0.171459           0.204349          -0.104453           0.493541          -0.475783          -2.022594          -2.192039          -1.929787
symmetry_n_params 39 3 36
symmetry_params a1 b2 c3 x0 x1 x2 x3 x4 x5 x6 x7 x8 x9 x10 x11 x12 x13 x14 x15 x16 x17 x18 x19 x20 x21 x22 x23 x24 x25 x26 x27 x28 x29 x30 x31 x32 x33 x34 x35
symmetry_lv a1 , 0 , 0 
symmetry_lv 0 , b2 , 0 
symmetry_lv 0 , 0 , c3
symmetry_frac x0 , x1 , x2
symmetry_frac x3 , x4 , x5
symmetry_frac x6 , x7 , x8
symmetry_frac x9 , x10 , x11
symmetry_frac x12 , x13 , x14
symmetry_frac x15 , x16 , x17
symmetry_frac x18 , x19 , x20
symmetry_frac x21 , x22 , x23
symmetry_frac x24 , x25 , x26
symmetry_frac x27 , x28 , x29
symmetry_frac x30 , x31 , x32
symmetry_frac x33 , x34 , x35
