# 
# This is the geometry file that corresponds to the current relaxation step.
# If you do not want this file to be written, set the "write_restart_geometry" flag to .false.
#  aims_uuid : A120F76A-9424-4572-A308-5DF37ABDDB9F                                
# 
lattice_vector      5.85253725      0.00000000      0.00000000
lattice_vector      0.00000000      5.95734977      0.00000000
lattice_vector      0.00000000      0.00000000      7.43931601
atom_frac       0.50169582      0.00172023      0.00176406 Pd
atom_frac       0.00172673      0.00173754      0.50162924 Pd
atom_frac       0.00170112      0.50163745      0.00172663 Pd
atom_frac       0.50166249      0.50166594      0.50166741 Pd
atom_frac       0.61341359      0.11959972      0.40357113 Se
atom_frac       0.88988725      0.88374734      0.90356074 Se
atom_frac       0.11347437      0.38380461      0.59974651 Se
atom_frac       0.38997431      0.61952760      0.09981909 Se
atom_frac       0.38992678      0.88371434      0.59974387 Se
atom_frac       0.11345143      0.11956896      0.09980336 Se
atom_frac       0.88987036      0.61956784      0.40358006 Se
atom_frac       0.61336078      0.38385348      0.90353295 Se
# 
# What follows is the current estimated Hessian matrix constructed by the BFGS algorithm.
# This is NOT the true Hessian matrix of the system.
# If you do not want this information here, switch it off using the "hessian_to_restart_geometry" keyword.
# 
trust_radius             0.0244220716
hessian_block                1       1           5.945638           0.054392          -2.266737           0.054392           6.298783          -1.018184          -2.266737          -1.018184           4.921020
hessian_block                1       2           0.009581           0.460061           0.140361           0.445357           0.355718          -0.020822           0.121810          -0.036249          -0.061740
hessian_block                1       3           0.062534           0.566451           0.144217          -0.105356          -0.246888           0.001446          -0.149863           0.168888           0.121575
hessian_block                1       4           0.529311           0.304485          -0.068724           0.191813          -0.363331          -0.227423           0.148487          -0.037674          -0.044935
hessian_block                1       5          -0.114290          -0.608746          -0.362956          -0.407898          -0.079046           0.219497          -0.355614           0.422921           0.462501
hessian_block                1       6          -1.769065           0.232065           0.726456           0.260436          -0.191281          -0.113190           1.026129           0.123013          -0.172985
hessian_block                1       7          -0.400127           0.167961           0.327518           0.141609           0.459511           0.304078           0.095514          -0.360490          -0.265128
hessian_block                1       8          -0.249931          -0.602782           0.332737          -0.456570          -1.975861           0.736674           0.079377           0.543913          -0.592579
hessian_block                1       9          -0.125790           0.063067           0.246347          -0.378854          -0.175534          -0.082453           0.010159          -0.603385          -0.345025
hessian_block                1      10          -2.253423           0.637425           0.968885           0.332928          -0.548841          -0.492286           0.996487          -0.626320          -0.879391
hessian_block                1      11           0.105195          -0.390073          -0.289572           0.011424          -0.195891          -0.194963          -0.028030           0.517549           0.412980
hessian_block                1      12          -0.173723          -0.884302           0.101470          -0.089281          -1.690317           0.887623           0.322281           0.906014          -0.454427
hessian_block                2       2           6.105551           0.249036           2.168482           0.249036           6.481777           1.339985           2.168482           1.339985           4.767399
hessian_block                2       3           0.893147           0.512707           0.145180          -0.501955          -0.231355          -0.090943           0.221090          -0.022055          -0.040645
hessian_block                2       4           0.328499           0.559316           0.154662          -0.646100           0.030584           0.062701          -0.081326           0.132492           0.011173
hessian_block                2       5          -2.282785           0.127072          -0.795993           0.188172          -0.549375           0.002463          -0.271008           0.276697          -0.543293
hessian_block                2       6          -0.494180          -0.294304          -0.110043           0.132749          -0.471663          -0.144581           0.229467           0.337079          -0.075778
hessian_block                2       7          -0.140312          -0.632331          -0.435585          -0.233993          -1.609217          -0.933507          -0.691769          -1.200238          -0.475735
hessian_block                2       8          -0.252728          -0.293900          -0.159638           0.173599          -0.096314           0.013834          -0.335955          -0.375339          -0.058883
hessian_block                2       9          -2.006122           0.375579          -1.009413           0.895874          -0.523253           0.401068          -1.648928          -0.263003          -0.479313
hessian_block                2      10           0.439260          -0.123909           0.067739          -0.281683           0.021805           0.193012          -0.151702           0.081085           0.320231
hessian_block                2      11          -0.445047          -0.673150          -0.084020          -0.451400          -2.188008          -0.881161           0.302537          -0.598643          -0.489826
hessian_block                2      12          -0.588952          -0.251473          -0.063183           0.015639           0.426324           0.073379           0.118752           0.312761           0.228277
hessian_block                3       3           6.464853          -0.503379           2.392256          -0.503379           6.253368          -1.284743           2.392256          -1.284743           4.862706
hessian_block                3       4           0.434869          -0.293346           0.005413          -0.598941           0.428562          -0.256877          -0.050499           0.014019          -0.069398
hessian_block                3       5          -0.681078           0.188631          -0.413735          -0.408282           0.376490           0.065469           0.605834          -0.145655           0.514108
hessian_block                3       6          -0.832935           0.724746          -0.453814           0.422013          -2.012917           1.000685          -0.159075           0.637265          -0.258083
hessian_block                3       7          -0.055190           0.084975           0.196970           0.305147          -0.078325           0.291151          -0.672254           0.119876          -0.408964
hessian_block                3       8          -2.087850          -0.295579          -0.823861          -0.521251          -0.497770          -0.402628          -1.299618          -0.109833          -0.707917
hessian_block                3       9          -0.300747           0.364547           0.154329           0.297450          -0.268858           0.151938          -1.032594           0.435347          -0.461516
hessian_block                3      10           0.427019           0.377140           0.087260           0.441071          -1.695093           0.755079          -0.183227           0.906948          -0.696816
hessian_block                3      11          -0.296004           0.162800          -0.162693          -0.110600          -0.225436          -0.233167           0.676852          -0.156399           0.461984
hessian_block                3      12          -2.462707          -0.203224          -1.053353          -0.402386          -0.154754          -0.233737          -0.567071          -0.327329          -0.215172
hessian_block                4       4           5.962379          -0.006210          -2.015457          -0.006210           6.611444           1.397375          -2.015457           1.397375           4.806465
hessian_block                4       5          -0.543543           0.922567           0.359805           0.170941          -1.833118          -1.012347           0.060720          -1.395234          -0.633036
hessian_block                4       6          -0.215812           0.238023           0.027325          -0.236137          -0.521243          -0.196898           0.205568          -0.263713          -0.013809
hessian_block                4       7          -1.966270          -0.733337           0.677953          -0.206607          -0.450444           0.151083           0.748778           0.420223          -0.336920
hessian_block                4       8          -0.257765           0.020534          -0.050944           0.087951          -0.304607          -0.007368          -0.238532           0.101339           0.035967
hessian_block                4       9          -0.303658           0.619688           0.130286           0.147646          -2.277191          -0.959334          -0.001903          -0.355501          -0.340434
hessian_block                4      10          -0.293748          -0.319046          -0.140624          -0.230828           0.589882           0.125643           0.119778           0.466508           0.207145
hessian_block                4      11          -1.911029          -0.145340           0.936587          -0.660986          -0.439613           0.282388           0.981945          -0.155718          -0.566075
hessian_block                4      12          -0.197320           0.456349           0.058408           0.363775           0.176097           0.110616           0.047754           0.206322           0.045723
hessian_block                5       5           5.548094          -0.337094          -1.572613          -0.337094           5.833485          -1.172398          -1.572613          -1.172398           7.867715
hessian_block                5       6           0.501706           0.280616          -0.446349          -0.067925           0.050050           0.515657          -0.159108          -0.027774           0.356125
hessian_block                5       7          -0.296780           1.016680          -0.054158          -1.002063           0.385191           0.554014           0.734682           0.425537          -1.388760
hessian_block                5       8          -0.054068          -0.088932           0.445514           0.478519          -0.007174          -0.693509           0.587095           0.438056          -0.848805
hessian_block                5       9          -1.389299          -0.368968           1.787347          -0.481281          -1.600237           2.158928           2.217560           2.198031          -3.833709
hessian_block                5      10          -0.187571           0.114379           0.510652           0.531626           0.124439          -0.554741           0.445891          -0.344355          -0.804733
hessian_block                5      11           0.536174          -0.673490           0.047247           0.756237          -0.584185          -0.407023          -1.045991          -0.335166           1.453026
hessian_block                5      12           0.529351           0.513874          -0.757570          -0.507543          -0.469498           0.440341           0.005363          -0.457011           0.500723
hessian_block                6       6           4.964381           0.071665           1.245223           0.071665           5.683354           1.326132           1.245223           1.326132           7.638584
hessian_block                6       7           0.247900           0.071932           0.346742          -0.073191           0.164554           0.637228           0.540656          -0.031481          -0.245809
hessian_block                6       8           0.099455           0.318456           0.094721           0.234294           0.202460           0.155334           0.326534          -0.048339          -0.260602
hessian_block                6       9           0.063735           0.148327           0.055534          -0.268910           0.454007          -0.503440           0.642792          -0.148893          -0.489539
hessian_block                6      10          -1.437564          -0.963209          -2.239939          -1.070237          -1.846173          -2.498280          -1.828905          -2.334322          -3.766118
hessian_block                6      11          -0.105536          -0.061191          -0.684239           0.118724           0.338607          -0.161106          -0.521342           0.346186           0.424251
hessian_block                6      12           0.543826          -0.097116           0.038980          -0.193492          -0.202733           0.238263          -0.148531          -0.170959          -0.034371
hessian_block                7       7           5.537881           0.678276           1.081444           0.678276           5.903200          -1.451303           1.081444          -1.451303           7.879514
hessian_block                7       8          -0.212935           0.020685          -0.219515           0.145619          -0.296980           0.852398           0.364262          -0.474202           1.065407
hessian_block                7       9           0.350467           0.581106          -0.260687          -0.680491          -0.688117          -0.447898           0.285039          -0.549894           1.567912
hessian_block                7      10           0.045347          -0.257958          -0.459322          -0.006154          -0.639579           0.073420          -0.717556          -0.895670           0.388741
hessian_block                7      11          -1.926944           0.176572          -1.617319           0.352880          -1.875241           2.250800          -1.574312           2.383052          -3.800697
hessian_block                7      12           0.382876          -0.129583           0.719791          -0.466010           0.372472          -0.650847          -0.498318          -0.016029          -0.877694
hessian_block                8       8           4.813644          -0.168188          -0.983974          -0.168188           5.675820           1.531606          -0.983974           1.531606           7.133383
hessian_block                8       9           0.365791          -0.541723          -0.192786           0.243001           0.039242          -0.167882          -0.156470           0.600411           1.075328
hessian_block                8      10          -0.074946          -0.194447          -0.050668          -0.401306          -0.162232           0.289244          -0.309143           0.037977           0.275231
hessian_block                8      11           0.413675          -0.352087          -0.188356           0.104939           0.663306           0.470866           0.342296          -0.773003          -1.026572
hessian_block                8      12          -0.936431           1.114282           1.932620           1.143073          -1.592868          -2.199427           1.488277          -2.051724          -2.988093
hessian_block                9       9           5.084836          -0.566962          -0.837271          -0.566962           6.050132          -1.445233          -0.837271          -1.445233           8.106678
hessian_block                9      10          -0.072539           0.613121          -0.431369          -0.299483           0.135729           0.377558          -0.475406           0.321167           0.565127
hessian_block                9      11          -0.169024           0.681436          -0.010710          -0.627489           0.682912           0.412710           0.474654           0.304614          -1.510771
hessian_block                9      12           0.068263          -0.502032           0.963697           0.252310          -0.181809          -0.658147          -0.072934           0.268525          -0.752873
hessian_block               10      10           5.380281           0.443632           1.359287           0.443632           6.250439           2.128751           1.359287           2.128751           8.106783
hessian_block               10      11           0.066674           0.297006           0.793205          -0.035376          -0.254576           0.351165           0.294541          -0.660554          -0.709052
hessian_block               10      12          -0.472877           0.243428          -0.048711          -0.291750          -0.328777          -0.092933           0.033557           0.263154           0.094716
hessian_block               11      11           5.492591           0.628021           0.857004           0.628021           6.044496          -1.578505           0.857004          -1.578505           7.866240
hessian_block               11      12          -0.194813          -0.086371          -0.760151           0.349497          -0.319347           0.706588           0.402867          -0.312005           0.586379
hessian_block               12      12           5.068420          -0.173829          -1.131997          -0.173829           5.612234           1.378281          -1.131997           1.378281           6.968678
hessian_block_lv             1       1          26.460990          -1.298904           5.348177          -1.298904          25.538903           2.776481           5.348177           2.776481           1.940441
hessian_block_lv_atom        1       1           0.319330           0.495972           0.083190          -0.966477          -0.720997          -0.289555          -0.611661          -0.376843          -0.072547
hessian_block_lv_atom        1       2          -1.372834          -1.368478          -0.400510          -0.401139          -0.372040          -0.078028           0.082086          -0.384512          -0.077704
hessian_block_lv_atom        1       3          -1.528365          -1.548089          -0.451409           0.766247           0.877200           0.203364          -0.810530          -0.843870          -0.170074
hessian_block_lv_atom        1       4          -0.228003          -0.264335          -0.106543           1.293433           1.178542           0.416923           0.398810           0.268943           0.066190
hessian_block_lv_atom        1       5           1.111298           0.947483           0.607711          -0.137331          -0.412601           0.285486          -2.079974          -2.737239          -1.538642
hessian_block_lv_atom        1       6           0.824822           0.294105          -0.045187          -0.464262          -0.568569          -0.448008          -1.639987          -2.495089          -1.312034
hessian_block_lv_atom        1       7          -1.064155          -1.533587           0.031605          -1.253477          -1.290636          -0.630357           1.904314           2.623085           1.376318
hessian_block_lv_atom        1       8           0.259083           1.023569          -0.139942           0.047817          -0.389774           0.195106           1.373752           2.093623           1.257609
hessian_block_lv_atom        1       9           0.123997           0.402822          -0.215005          -0.252560          -0.299512          -0.424099           2.394406           3.068433           1.542446
hessian_block_lv_atom        1      10          -0.817873          -0.585929           0.087710           0.618617           0.177231           0.530752           1.893189           2.957643           1.466614
hessian_block_lv_atom        1      11           1.446529           1.841601           0.089622           0.731876           1.180191           0.420590          -1.960759          -2.557031          -1.495929
hessian_block_lv_atom        1      12           0.926169           0.294865           0.458759           0.017255           0.640965          -0.182174          -0.943644          -1.617139          -1.042246
symmetry_n_params 39 3 36
symmetry_params a1 b2 c3 x0 x1 x2 x3 x4 x5 x6 x7 x8 x9 x10 x11 x12 x13 x14 x15 x16 x17 x18 x19 x20 x21 x22 x23 x24 x25 x26 x27 x28 x29 x30 x31 x32 x33 x34 x35
symmetry_lv a1 , 0 , 0 
symmetry_lv 0 , b2 , 0 
symmetry_lv 0 , 0 , c3
symmetry_frac x0 , x1 , x2
symmetry_frac x3 , x4 , x5
symmetry_frac x6 , x7 , x8
symmetry_frac x9 , x10 , x11
symmetry_frac x12 , x13 , x14
symmetry_frac x15 , x16 , x17
symmetry_frac x18 , x19 , x20
symmetry_frac x21 , x22 , x23
symmetry_frac x24 , x25 , x26
symmetry_frac x27 , x28 , x29
symmetry_frac x30 , x31 , x32
symmetry_frac x33 , x34 , x35
