# 
# This is the geometry file that corresponds to the current relaxation step.
# If you do not want this file to be written, set the "write_restart_geometry" flag to .false.
#  aims_uuid : 071F542A-F380-433D-AEBE-A8AC658BCB9A                                
# 
lattice_vector      3.28822374      0.00000000      0.00000000
lattice_vector     -1.64411187      2.84768529      0.00000000
lattice_vector      0.00000000      0.00000000     13.22304613
atom_frac       0.32979146      0.66519790      0.25303346 W
atom_frac       0.67631680      0.34095049      0.75303302 W
atom_frac       0.34284246      0.67415248      0.88065915 Se
atom_frac       0.66320384      0.33189846      0.38068201 Se
atom_frac       0.66322647      0.33187385      0.12541121 Se
atom_frac       0.34284551      0.67415336      0.62540767 Se
# 
# What follows is the current estimated Hessian matrix constructed by the BFGS algorithm.
# This is NOT the true Hessian matrix of the system.
# If you do not want this information here, switch it off using the "hessian_to_restart_geometry" keyword.
# 
trust_radius             0.0021200870
hessian_block                1       1         494.169219         163.620074          13.280723         163.620074          72.203643          -1.079916          13.280723          -1.079916         368.962773
hessian_block                1       2        -484.031684        -172.407279         -10.048945        -173.262640         -61.866941          -1.663561           4.039071           0.539732           4.925150
hessian_block                1       3           0.269469           0.267496           1.663619           6.275199           2.385870          -0.458098          30.455411           7.136287          -1.441777
hessian_block                1       4          -4.917365           3.973082          -3.505993          -1.637414          -7.168793           2.039786          10.704661           7.773106        -204.702413
hessian_block                1       5          -4.880948           3.871051          -2.987494          -1.699319          -7.081315           1.510707         -32.585006          -7.876287        -144.126177
hessian_block                1       6           0.250543           0.245960           1.598090           6.274484           2.386768          -0.348918         -25.894860          -6.492923          -9.169566
hessian_block                2       2         492.293276         165.025952          -4.634711         165.025952          71.188108           0.041913          -4.634711           0.041913         249.135551
hessian_block                2       3          -4.387569           3.618533          -0.698287          -2.515503          -6.473902          -0.963237         -29.754677          -6.852852        -121.756522
hessian_block                2       4           0.552322           0.358135           0.937642           6.100624           2.154387           0.693479         -14.667222          -3.274057          -3.494536
hessian_block                2       5           0.781799           0.210764           1.006954           5.888497           2.323763           0.645165          33.176715           6.159644           0.169130
hessian_block                2       6          -4.348912           3.619641          -0.650668          -2.521907          -6.466184          -0.957053          25.928840           5.588913        -114.530784
hessian_block                3       3           3.366596          -2.344804           1.813423          -2.344804           3.343321          -0.727033           1.813423          -0.727033         141.895104
hessian_block                3       4          -0.123222          -0.143094          -2.297978          -0.217688          -0.121417           0.713606          -0.120948          -0.534633           5.296551
hessian_block                3       5          -0.218746          -0.063845          -1.993209          -0.116522          -0.207163           0.415517          -2.152239           1.543996           1.797599
hessian_block                3       6           1.952705          -1.637569           1.777030          -1.636630           1.932522          -0.685525          -0.505568           1.139006         -11.342965
hessian_block                4       4           3.465771          -2.612833           2.163328          -2.612833           3.789673          -1.733945           2.163328          -1.733945         222.556883
hessian_block                4       5           2.008669          -1.851693           1.976544          -1.860610           2.327349          -1.590149           2.026522          -0.884300          -1.438808
hessian_block                4       6          -0.126943          -0.210612          -0.056362          -0.144295          -0.121966          -0.640322           0.676479          -0.828627          -3.769686
hessian_block                5       5           3.389930          -2.531364           1.681306          -2.531364           3.704694          -0.482669           1.681306          -0.482669         150.562438
hessian_block                5       6          -0.221471          -0.110297          -2.147299          -0.064529          -0.208097           1.539615           0.315899          -0.498572           7.483808
hessian_block                6       6           3.353311          -2.336739          -0.520791          -2.336739           3.336189           1.092202          -0.520791           1.092202         145.777183
hessian_block_lv             1       1          64.794178           3.126730           0.000000           3.126730           1.679531           0.000000           0.000000           0.000000           0.000000
hessian_block_lv_atom        1       1          -3.298737           4.909502           0.000000           1.646950           0.767886           0.000000         -38.457087           4.175730           0.000000
hessian_block_lv_atom        1       2           1.795376          -4.475234           0.000000           0.178125          -1.091914           0.000000           0.104110          -0.454327           0.000000
hessian_block_lv_atom        1       3          -0.757140           0.135797           0.000000           0.388189          -0.074994           0.000000          17.646713           7.523432           0.000000
hessian_block_lv_atom        1       4           1.492554          -0.375725           0.000000          -1.278105           0.259110           0.000000          53.000977           5.615550           0.000000
hessian_block_lv_atom        1       5           1.492067          -0.330240           0.000000          -1.286938           0.212407           0.000000         -10.120444          -8.186068           0.000000
hessian_block_lv_atom        1       6          -0.724120           0.135899           0.000000           0.351780          -0.072495           0.000000         -22.174270          -8.674316           0.000000
