#=======================================================
# FHI-aims file: geometry.in
# Created using the Atomic Simulation Environment (ASE)
# Sat Apr  4 12:47:09 2020
#=======================================================
lattice_vector 3.2799999999999998 0.0000000000000000 0.0000000000000000 
lattice_vector -1.6399999999999999 2.8405633199999998 0.0000000000000000 
lattice_vector 0.0000000000000000 0.0000000000000000 13.4499999999999993 
atom_frac 0.3333333333333334 0.6666666666666667 0.2500000000000000 W
atom_frac 0.6666666666666666 0.3333333333333334 0.7500000000000001 W
atom_frac 0.3333333333333334 0.6666666666666667 0.8785000000000001 Se
atom_frac 0.6666666666666666 0.3333333333333334 0.3785000000000000 Se
atom_frac 0.6666666666666666 0.3333333333333334 0.1215000000000000 Se
atom_frac 0.3333333333333334 0.6666666666666667 0.6215000000000001 Se
symmetry_n_params 20 2 18
symmetry_params a1 c3 x0 x1 x2 x3 x4 x5 x6 x7 x8 x9 x10 x11 x12 x13 x14 x15 x16 x17
symmetry_lv a1 , 0 , 0 
symmetry_lv -a1/2 , sqrt(3.0)*a1/2 , 0 
symmetry_lv 0 , 0 , c3
symmetry_frac x0 , x1 , x2
symmetry_frac x3 , x4 , x5
symmetry_frac x6 , x7 , x8
symmetry_frac x9 , x10 , x11
symmetry_frac x12 , x13 , x14
symmetry_frac x15 , x16 , x17
