#=======================================================
# FHI-aims file: geometry.in
# Created using the Atomic Simulation Environment (ASE)
# Wed Jan 13 12:33:33 2021
#=======================================================
lattice_vector 2.5124282299999998 0.0000000000000000 0.0000000000000000 
lattice_vector -1.2562141099999999 2.1758266700000002 0.0000000000000000 
lattice_vector 0.0000000000000000 0.0000000000000000 100.0000000000000000 
atom 1.2562141300000000 0.7252755500000000 1.9268162499999999 N
atom -0.0000000100000000 1.4505511200000001 1.9268162499999999 B
