# 
# This is the geometry file that corresponds to the current relaxation step.
# If you do not want this file to be written, set the "write_restart_geometry" flag to .false.
#  aims_uuid : 4B6557C1-6F8A-4CE8-ACA6-9098F40A9289                                
# 
lattice_vector      5.69545599      0.00000000      0.00000000
lattice_vector      0.00000000      5.89267071      0.00000000
lattice_vector      0.00000000      0.00000000    101.32696997
atom_frac       0.71683145     -0.00269833      0.49985500 Se
atom_frac       0.60860164      0.61639872      0.49231296 Pd
atom_frac       0.00042433      0.49724758      0.49985411 Se
atom_frac       0.10856231      0.11644485      0.49231263 Pd
atom_frac       0.21688498      0.73551582      0.48478126 Se
atom_frac       0.50036939      0.23556974      0.48478210 Se
# 
# What follows is the current estimated Hessian matrix constructed by the BFGS algorithm.
# This is NOT the true Hessian matrix of the system.
# If you do not want this information here, switch it off using the "hessian_to_restart_geometry" keyword.
# 
trust_radius             0.1120409139
hessian_block                1       1           0.845757           0.002598           3.350568           0.002598           1.209835          -2.871220           3.350568          -2.871220         268.352646
hessian_block                1       2           0.004351          -0.151608          -0.772800          -0.164108          -0.606049          -4.375291          -0.000295          -3.420862         -52.253494
hessian_block                1       3          -0.061217           0.030913          -1.878727           0.030845           0.251224          -2.058218           1.669248          -0.954776          75.892463
hessian_block                1       4          -0.343457          -0.064504           2.951194          -0.163482          -0.024701           0.492250           1.764123          -0.871628         -52.071509
hessian_block                1       5           0.043487           0.089065           1.937550           0.087862          -0.201242           1.870018          -1.672617           2.073010         -43.722888
hessian_block                1       6          -0.199922           0.093536          -5.587785           0.206286          -0.325096           6.942461          -5.111028           6.045477        -105.130411
hessian_block                2       2           1.250042           0.019564           5.059997           0.019564           1.424856           3.737992           5.059997           3.737992         228.108400
hessian_block                2       3          -0.378880           0.165125          -1.866702           0.290247          -0.268557           2.268875          -1.060260          -1.659925         -35.964074
hessian_block                2       4          -0.214093          -0.016389          -1.373905          -0.283471           0.050716          -0.736685          -1.551950           1.651894          71.688887
hessian_block                2       5          -0.416461          -0.089552          -1.718462           0.282635           0.021226           1.925721          -0.988752           1.696439         -52.291497
hessian_block                2       6           0.044041           0.085360          -0.100633          -0.157367          -0.318221          -3.775041          -0.686235          -1.051109         -68.221416
hessian_block                3       3           0.867131          -0.046958          -3.947553          -0.046958           1.406899          -3.047673          -3.947553          -3.047673         259.464161
hessian_block                3       4          -0.000071          -0.119048           0.457981           0.186733          -0.634184          -3.363061           1.394222          -2.650438         -46.307002
hessian_block                3       5          -0.174588          -0.138636           4.969488          -0.279614          -0.191200           6.393207           4.682926           5.162118        -116.261793
hessian_block                3       6           0.036626          -0.016449          -2.088904          -0.056198          -0.260211           2.632228           1.615834           0.325337         -45.756949
hessian_block                4       4           1.193317           0.240959          -4.773718           0.240959           1.407593           4.423827          -4.773718           4.423827         211.689581
hessian_block                4       5           0.022306           0.152474           0.809235          -0.046962          -0.551299          -2.153354           0.135168          -2.322194         -44.138034
hessian_block                4       6          -0.369001          -0.133213           2.358088           0.005943           0.055846          -0.400300           2.603281           1.505864         -49.795116
hessian_block                5       5           0.949670          -0.047705          -4.056713          -0.047705           1.159720          -4.699705          -4.056713          -4.699705         264.549683
hessian_block                5       6          -0.135414           0.003784           1.899989           0.034354           0.066767          -1.909667          -1.941097          -3.335886          82.931335
hessian_block                6       6           0.912670          -0.033018           3.519245          -0.033018           1.084885          -3.489681           3.519245          -3.489681         277.039363
hessian_block_lv             1       1          18.203861           9.250950          -0.470196           9.250950          10.329624          -0.054255          -0.470196          -0.054255           0.071675
hessian_block_lv_atom        1       1          -0.101545           0.181438          -0.004574          -0.521602           0.153255          -0.026345           9.110643           8.891866           0.711839
hessian_block_lv_atom        1       2          -0.192721          -0.212965          -0.019249           0.066577          -0.222459           0.005054          -4.616028          -5.822033          -0.544956
hessian_block_lv_atom        1       3           0.152862          -0.169733           0.007353          -0.833800          -0.204973          -0.061091           7.808066           7.175443           0.556742
hessian_block_lv_atom        1       4           0.098062           0.195136           0.014550           0.218823           0.133462           0.021444          -1.867009          -4.372479          -0.280928
hessian_block_lv_atom        1       5          -0.062357           0.208258          -0.003109           0.379224          -0.109204           0.013129          -5.832184          -3.762591          -0.294980
hessian_block_lv_atom        1       6           0.105698          -0.202133           0.005029           0.690778           0.249919           0.047809          -4.603489          -2.110206          -0.147716
