# 
# This is the geometry file that corresponds to the current relaxation step.
# If you do not want this file to be written, set the "write_restart_geometry" flag to .false.
#  aims_uuid : 8195128B-9137-401D-A0CF-19F2B4165EEF                                
# 
lattice_vector      3.28798966      0.00000000      0.00000000
lattice_vector     -1.64399483      2.84748257      0.00000000
lattice_vector      0.00000000      0.00000000     13.22880585
atom_frac       0.33007226      0.66550241      0.25336126 W
atom_frac       0.67669818      0.34127787      0.75338108 W
atom_frac       0.34322496      0.67452131      0.88097168 Se
atom_frac       0.66352526      0.33219399      0.38095514 Se
atom_frac       0.66352140      0.33219514      0.12577516 Se
atom_frac       0.34319804      0.67454936      0.62579578 Se
# 
# What follows is the current estimated Hessian matrix constructed by the BFGS algorithm.
# This is NOT the true Hessian matrix of the system.
# If you do not want this information here, switch it off using the "hessian_to_restart_geometry" keyword.
# 
trust_radius             0.0023973885
hessian_block                1       1         486.716743         166.555507          15.588266         166.555507          72.365277          -1.097831          15.588266          -1.097831         360.435360
hessian_block                1       2        -479.519348        -170.430716         -12.155093        -171.756505         -63.938282          -4.204426          10.241421          -2.975155          67.067021
hessian_block                1       3          -0.076031          -1.738528           1.149552           6.390383           3.623664          -0.107810          33.565428           9.515345         -19.875763
hessian_block                1       4          -3.218769           3.024137          -2.353563          -3.841954          -6.953858           2.164246          19.993204          12.826259        -198.675108
hessian_block                1       5          -3.203022           3.069763          -2.635285          -3.883400          -7.005260           2.465492         -45.581442         -12.919906        -140.181509
hessian_block                1       6           0.159660          -0.909780           0.406123           6.106352           2.767692           0.780329         -33.806878          -5.348711         -54.322011
hessian_block                2       2         487.038884         168.677337          -5.800491         168.677337          72.653744          -2.852007          -5.800491          -2.852007         307.350075
hessian_block                2       3          -3.715901           2.360141          -1.707961          -4.401361          -6.676164          -0.488851         -34.280383          -8.526045        -149.905384
hessian_block                2       4          -0.113607          -1.316186          -0.135259           5.527322           3.000082           2.907035         -25.660027          -6.301841         -58.348750
hessian_block                2       5          -0.059085          -1.285023          -0.364600           5.531607           3.002577           3.205525          47.348700          12.152513          -7.359649
hessian_block                2       6          -2.771710           2.890620          -2.233111          -5.333805          -7.182724           0.203453          30.547294           9.731806        -144.355323
hessian_block                3       3           3.695977          -1.980405           1.316181          -1.980405           3.300762          -0.182727           1.316181          -0.182727         150.378364
hessian_block                3       4          -0.287264           0.382233          -1.525349           0.720596          -0.597551           0.319515           0.588236           0.040268          30.882023
hessian_block                3       5          -0.328965           0.386619          -1.400190           0.748486          -0.604275           0.161901          -2.271070           0.507063          -6.018463
hessian_block                3       6           1.571417          -1.207085           2.324312          -0.539907           1.812796          -1.287990           0.925062           0.232057           8.987213
hessian_block                4       4           3.190713          -1.904049           1.522266          -1.904049           3.480616          -2.524129           1.522266          -2.524129         208.081952
hessian_block                4       5           1.770607          -1.223678           1.765611          -1.197674           2.092266          -2.771979           1.674069          -0.389073           6.551682
hessian_block                4       6          -0.482448           0.292146           1.790711           0.581923          -0.162323          -1.268578           0.817836          -2.477595          25.956191
hessian_block                5       5           3.167846          -1.926803           1.703488          -1.926803           3.520168          -0.431338           1.703488          -0.431338         137.430740
hessian_block                5       6          -0.488148           0.298168          -2.873745           0.549506          -0.146243           1.080741           0.930975          -2.629600          24.025190
hessian_block                6       6           2.870461          -1.793685           0.585711          -1.793685           3.770035           0.492044           0.585711           0.492044         154.156731
hessian_block_lv             1       1          52.799057           3.661392           0.000000           3.661392           1.748162           0.000000           0.000000           0.000000           0.000000
hessian_block_lv_atom        1       1           2.272977           6.182470           0.000000           2.364710           1.472840           0.000000         -12.884101           3.492290           0.000000
hessian_block_lv_atom        1       2          -2.675480          -6.045168           0.000000          -1.856333          -1.607998           0.000000          -8.549063          -0.288696           0.000000
hessian_block_lv_atom        1       3          -0.965925           0.127242           0.000000           0.796777          -0.008389           0.000000          16.671431           7.303118           0.000000
hessian_block_lv_atom        1       4           0.915296          -0.248863           0.000000          -0.793598           0.129987           0.000000          33.514153           7.016328           0.000000
hessian_block_lv_atom        1       5           0.955179          -0.245177           0.000000          -0.828356           0.126340           0.000000         -16.672470          -8.855239           0.000000
hessian_block_lv_atom        1       6          -0.502048           0.229497           0.000000           0.316800          -0.112780           0.000000         -12.079951          -8.667800           0.000000
