# 
# This is the geometry file that corresponds to the current relaxation step.
# If you do not want this file to be written, set the "write_restart_geometry" flag to .false.
#  aims_uuid : C175C856-8B61-4735-A336-ED66918C3AAD                                
# 
lattice_vector      3.77969289      0.00000000      0.00000000
lattice_vector     -1.88984644      3.27331006      0.00000000
lattice_vector      0.00000000      0.00000000      4.95598296
atom_frac      -0.00031065     -0.00032430     -0.00024884 Pt
atom_frac       0.33320652      0.66619726      0.25926488 Se
atom_frac       0.66632174      0.33334465      0.74020158 Se
# 
# What follows is the current estimated Hessian matrix constructed by the BFGS algorithm.
# This is NOT the true Hessian matrix of the system.
# If you do not want this information here, switch it off using the "hessian_to_restart_geometry" keyword.
# 
trust_radius             0.1000000015
hessian_block                1       1           9.172146          -0.132649           0.661839          -0.132649           7.147462          -0.451691           0.661839          -0.451691          24.241096
hessian_block                1       2          -3.534327          -0.354086          -0.508914          -0.071458          -2.419072           0.721500           0.217326           0.506960         -10.262927
hessian_block                1       3          -3.774737          -0.444806          -0.152925          -0.727434          -2.865307          -0.269810          -0.879165          -0.055270         -10.905158
hessian_block                2       2           5.347648          -1.307152           0.689480          -1.307152           5.592347          -1.341925           0.689480          -1.341925          15.165472
hessian_block                2       3           0.049762           0.447068          -0.906805           0.729697          -1.310192           0.834965          -0.180565           0.620425          -1.829534
hessian_block                3       3           5.588058          -0.933804           1.059730          -0.933804           6.038582          -0.565155           1.059730          -0.565155          15.807704
hessian_block_lv             1       1          35.294873           5.786229           0.000000           5.786229           2.011447           0.000000           0.000000           0.000000           0.000000
hessian_block_lv_atom        1       1           0.528915           0.269794           0.000000           0.279791           0.165100           0.000000           0.404310           0.111313           0.000000
hessian_block_lv_atom        1       2           1.517964           0.218498           0.000000           2.109373           0.173826           0.000000           2.982441           2.527329           0.000000
hessian_block_lv_atom        1       3          -2.046879          -0.488293           0.000000          -2.389164          -0.338926           0.000000          -3.386750          -2.638642           0.000000
