#=======================================================
# FHI-aims file: ./geometry.in
# Created using the Atomic Simulation Environment (ASE)
# Thu Mar 19 17:13:26 2020
#=======================================================
lattice_vector 2.8655000099999999 1.6543972000000000 2.3730000000000002 
lattice_vector -2.8655000099999999 1.6543972000000000 2.3730000000000002 
lattice_vector 0.0000000000000000 -3.3087944000000000 2.3730000000000002 
atom_frac 0.7479000000000001 0.7479000000000000 0.7478999999999999 S
atom_frac 0.2520999999999999 0.2520999999999999 0.2520999999999999 S
atom_frac 0.4999999992687707 0.2449000001590167 0.7551000005722124 Ni
atom_frac 0.2448999991453499 0.7551000008546502 0.4999999999999999 Ni
atom_frac 0.7550999998409831 0.5000000007312292 0.2448999994277875 Ni
