#=======================================================
# FHI-aims file: geometry.in
# Created using the Atomic Simulation Environment (ASE)
# Sun Feb 28 12:18:51 2021
#=======================================================
lattice_vector 7.3897899999999996 0.0000000000000000 0.0000000000000000 
lattice_vector -1.2818474371180213 7.5301252015125195 0.0000000000000000 
lattice_vector -0.0047714181390209 -0.1603846604786175 9.8255099260370233 
atom 0.0276995156156377 -0.1451213671929836 9.7926329218569297 O
atom 2.9189242133603832 6.2589753210921701 7.3503164218028134 C
atom 2.4404928574465434 7.4015622343743219 7.2969121436065034 O
atom 3.2531526772284582 5.6451922278251763 8.5235160774416947 N
atom 3.8447804969800705 4.4118929844237433 8.5043674328826260 C
atom 4.1246995822370991 3.8215034839074202 9.6877016184267237 N
atom 4.1536717164807193 3.7651841892517894 7.2585476230306156 C
atom 3.7884028321669212 4.3859097321748379 6.0950836776582191 C
atom 2.8594248202416011 6.0738050967179520 5.2349447607185038 H
atom 4.6063694815547800 2.9285864476835104 9.6970470183692488 H
atom 3.9051943247692567 4.4243503794011021 0.7445061941881720 H
atom 4.6711000308000932 2.8071446951210466 7.2640609507089335 H
atom 3.9777683013901028 3.9437965274326685 5.0969079867255029 H
atom 3.1625041684427524 5.6071758822838547 6.1191815570923289 N
atom 2.5715773160429047 7.0355416222764369 1.2284744835441381 N
atom 2.8046195534499478 6.3892957984432348 2.4641420355105854 C
atom 3.2798595342832901 5.2440158628673217 2.4165315405176138 O
atom 2.4602199817306039 7.0039880032640607 3.6323272046989556 N
atom 3.1559666174572012 0.7087854532250724 3.6011786183326024 C
atom 2.8761221000740238 1.3023742933669720 4.7807452522722107 N
atom 2.8528398888995881 1.3508310053531054 2.3512401805880350 C
atom 3.2182934922120574 0.7226529505666832 1.1932209642747909 C
atom 2.8867190291028093 6.5784221055489613 0.3477714381819631 H
atom 2.3961163285339167 2.2003718505860652 4.7842809154459225 H
atom 3.0493209486242381 0.8415859589928089 5.6637466897849125 H
atom 2.3400346445946960 2.3114806465101969 2.3487455572070739 H
atom 3.0407604075970545 1.1587127776788808 0.1912131050153965 H
atom -1.1731045659633252 7.0633979475500226 6.0813217918286391 N
atom -0.9268952521331340 6.4132092513473049 4.8482229697671206 C
atom -0.4289733406181634 5.2795069285123306 4.9111291041715504 O
atom 6.1146416406287978 7.0169562101938352 3.6748982443493405 N
atom 6.7914965825168503 0.7137086943952362 3.6907616888788404 C
atom 6.5110225648335494 1.3026569632121388 2.5087519762055015 N
atom 6.4653600371795141 1.3502959754393176 4.9381228356591667 C
atom 6.8405955630711750 0.7382274841174564 6.1025100768476586 C
atom -0.8464796012186147 6.6097664362964936 6.9591326081481988 H
atom 6.0684721897818283 2.2220489106366075 2.5084608780466220 H
atom 6.7445846495368311 0.8747442884344894 1.6239883303049294 H
atom 5.9296243474302939 2.2996809361789015 4.9346526884708171 H
atom 6.6406585837178591 1.1772950219624674 7.0994126834627105 H
atom -0.4996762531159716 5.7796391337145883 1.1689205540203080 N
atom -0.7591809300158151 6.2489660628127766 9.7543288788617986 C
atom -0.4065143969437067 5.6413386842328750 8.5858530367542301 N
atom 0.1837585171469158 4.4090791381407328 8.6230117056099544 C
atom 0.4318326217999039 3.8014210549854694 7.4431375211339565 N
atom 0.5092921164188203 3.9379044598461728 0.0493979106429791 C
atom 0.1357318732077168 4.5634938979998880 1.2069480280094134 C
atom -0.8101834721109181 6.2477279414455014 2.0505588625018185 H
atom 0.9346357052546588 2.9142775287708251 7.4392354109856971 H
atom 0.2646127302952184 4.2697107091700310 6.5615250418991202 H
atom 1.0377075655894921 2.9854346023717606 0.0522519590269324 H
atom 0.3195668939960375 4.1313301150748289 2.2091210229765710 H
atom 5.2918658815440320 1.2781384794983970 8.9643605432294979 O
atom 5.9832764038478432 0.6743956922373389 9.2291481525731367 H
atom 4.6783980256934132 0.7991787237547916 8.4069823119735787 H
atom 1.7013744867725411 3.8515254635665248 4.0929058778584988 O
atom 1.0088952094786572 4.4687956830932327 4.3460188687146148 H
atom 2.3234375804400549 4.3149649382733113 3.5249330604602447 H
atom 5.3964442228796754 3.8186896778234622 3.2754261572850014 O
atom 4.7031502674354266 4.4192218143518573 2.9970623860027805 H
atom 6.0169562671398591 4.3071634180478844 3.8291574566918971 H
atom 1.5998970335299514 1.2898653029797189 8.1506527101340502 O
atom 2.2874325955067025 0.6916622314241029 7.8746262689876954 H
atom 0.9800238653811977 0.7998427246460825 8.6964795055716664 H
