# 
# This is the geometry file that corresponds to the current relaxation step.
# If you do not want this file to be written, set the "write_restart_geometry" flag to .false.
#  aims_uuid : EB2F9876-643B-462E-A2DF-AE2C221B1E27                                
# 
lattice_vector      5.84480867      0.00000000      0.00000000
lattice_vector      0.00000000      5.95337593      0.00000000
lattice_vector      0.00000000      0.00000000      7.51322495
atom_frac       0.50216046      0.00217791      0.00209957 Pd
atom_frac       0.00212983      0.00221022      0.50225475 Pd
atom_frac       0.00222554      0.50213748      0.00206957 Pd
atom_frac       0.50222748      0.50220865      0.50227665 Pd
atom_frac       0.61428413      0.12056744      0.40551949 Se
atom_frac       0.89000006      0.88380645      0.90548718 Se
atom_frac       0.11440696      0.38380746      0.59890926 Se
atom_frac       0.39010157      0.62059241      0.09884790 Se
atom_frac       0.39002557      0.88381650      0.59891790 Se
atom_frac       0.11435071      0.12050866      0.09884261 Se
atom_frac       0.89004152      0.62058245      0.40553242 Se
atom_frac       0.61426923      0.38380744      0.90546578 Se
# 
# What follows is the current estimated Hessian matrix constructed by the BFGS algorithm.
# This is NOT the true Hessian matrix of the system.
# If you do not want this information here, switch it off using the "hessian_to_restart_geometry" keyword.
# 
trust_radius             0.0976797640
hessian_block                1       1           6.017328           0.022451          -2.123619           0.022451           6.544929          -1.233335          -2.123619          -1.233335           4.637874
hessian_block                1       2          -0.087379           0.596652          -0.127433           0.249839           0.177963          -0.338060          -0.158808           0.119103          -0.045143
hessian_block                1       3          -0.134149           0.686457          -0.183781          -0.028002          -0.073413           0.164578          -0.162218           0.093074          -0.150039
hessian_block                1       4           0.552838           0.197222          -0.050307           0.114484          -0.575204          -0.160905           0.007569           0.005727          -0.011003
hessian_block                1       5           0.004594          -0.552969          -0.073698          -0.387571           0.434555           0.162983          -0.144858           0.119121           0.161432
hessian_block                1       6          -1.785908          -0.039432           0.845017           0.501366          -0.512651          -0.055561           1.570841          -0.569281          -0.334072
hessian_block                1       7          -0.347388           0.254510           0.024959           0.163565           0.153701           0.131683           0.007761           0.216581           0.146315
hessian_block                1       8          -0.250283          -0.458558           0.345638          -0.316342          -1.921899           0.836908          -0.044371           0.956891          -0.499515
hessian_block                1       9          -0.174427           0.102864           0.182178          -0.394323          -0.379773           0.068064          -0.124279           0.017629           0.145037
hessian_block                1      10          -2.341380           0.831670           0.791018          -0.067667          -0.310142          -0.547383           0.511124          -0.195167          -0.644560
hessian_block                1      11           0.054227          -0.599631           0.038734           0.264698           0.193701           0.137199           0.190414           0.162370           0.165044
hessian_block                1      12           0.057833          -1.041238           0.331291          -0.122500          -2.084742           0.833827           0.470446           0.307286          -0.469505
hessian_block                2       2           6.157551           0.367222           2.523341           0.367222           7.362666           2.205566           2.523341           2.205566           5.375821
hessian_block                2       3           1.021463           0.909663           0.759231          -0.389497          -0.556130          -0.413913           0.136069           0.027708           0.251925
hessian_block                2       4           0.176924           0.589502           0.126803          -0.529775           0.728104           0.421304           0.139204           0.653473           0.342008
hessian_block                2       5          -2.166162           0.065280          -1.096597           0.608720          -0.649775           0.106386          -0.791418          -0.434992          -0.812170
hessian_block                2       6          -0.523396          -0.099263          -0.167233          -0.447076          -1.105710          -0.775024          -0.657421          -0.979598          -1.069281
hessian_block                2       7          -0.059558          -0.742696          -0.209129          -0.520926          -1.670866          -0.863933          -0.185333          -1.180568          -0.709918
hessian_block                2       8          -0.188060          -0.562882          -0.373976           0.038032          -0.420567          -0.341763           0.122285          -0.034108           0.212902
hessian_block                2       9          -1.954854           0.400575          -0.933601           0.564074          -0.877964          -0.029399          -0.994382           0.072955          -0.566095
hessian_block                2      10           0.504972          -0.055562           0.358604           0.412327           1.299352           1.224655           0.511505           1.217740           1.043560
hessian_block                2      11          -0.589337          -0.674038          -0.412711          -0.502921          -3.293877          -1.878975          -0.253611          -1.151749          -0.727061
hessian_block                2      12          -0.726251          -0.447640          -0.415925          -0.196832           0.653825           0.225998          -0.422807          -0.058366          -0.194687
hessian_block                3       3           6.780642          -0.506436           2.350586          -0.506436           6.332299          -1.224644           2.350586          -1.224644           4.714258
hessian_block                3       4           0.307033          -0.246828          -0.035582          -0.317905           0.026493          -0.070788           0.321483          -0.235499           0.128354
hessian_block                3       5          -0.675865           0.099912          -0.248640          -0.025007           0.485419           0.187535          -0.074066           0.230356           0.076061
hessian_block                3       6          -0.799315           0.433033          -0.404824          -0.307164          -1.705587           0.714450          -1.399915           1.070440          -0.938526
hessian_block                3       7           0.042788           0.155441           0.066026           0.110700          -0.056259           0.105602          -0.191318           0.079379           0.004482
hessian_block                3       8          -2.147081          -0.193231          -0.862989          -0.765173          -0.307126          -0.474944          -0.705124          -0.226367          -0.378324
hessian_block                3       9          -0.207044           0.349621           0.148198          -0.104707          -0.153734           0.017707          -0.324127           0.242218           0.096786
hessian_block                3      10           0.538204           0.504383           0.062005           1.480574          -2.295265           1.179244           0.738335           0.452186          -0.160973
hessian_block                3      11          -0.489330           0.034157          -0.062785          -0.604192           0.275825          -0.283474          -0.009085           0.180552           0.057488
hessian_block                3      12          -2.671434          -0.212556          -0.985850          -0.556807          -0.325497          -0.271469          -1.282222          -0.319284          -0.599628
hessian_block                4       4           5.995022           0.163043          -1.979541           0.163043           7.068953           1.605121          -1.979541           1.605121           4.966238
hessian_block                4       5          -0.419847           0.698916           0.147780           0.126631          -2.306698          -1.069224           0.019374          -1.409810          -0.731800
hessian_block                4       6          -0.131818           0.400250           0.017446          -0.281184          -0.515542          -0.451929           0.285253          -0.413883          -0.460605
hessian_block                4       7          -1.993414          -0.852550           0.769970          -0.158179          -0.190999           0.262487           0.710149          -0.163095          -0.601378
hessian_block                4       8          -0.415370          -0.215813          -0.207022           0.059009          -0.495524          -0.179053          -0.211755          -0.089307           0.070906
hessian_block                4       9          -0.339730           0.611804           0.154637           0.069165          -2.310068          -1.122778           0.027707          -0.833724          -0.533442
hessian_block                4      10          -0.371774          -0.338120           0.013270          -0.168438           0.980070           0.645123           0.060565           0.681527           0.577402
hessian_block                4      11          -1.851595          -0.084102           0.774312          -0.792761          -1.373320          -0.352536           0.981890          -0.010600          -0.610584
hessian_block                4      12           0.057640           0.349768          -0.159105           0.442816           0.610759           0.239091           0.065441           0.444157          -0.034233
hessian_block                5       5           5.542422          -0.396579          -0.963079          -0.396579           6.491122          -1.108345          -0.963079          -1.108345           7.802687
hessian_block                5       6           0.124050          -0.506407          -0.168305           0.149998          -0.444857           0.689742           0.418440          -0.888425           1.102353
hessian_block                5       7          -0.227744           1.137912          -0.123029          -0.903427           0.015832           0.355494           0.214552           0.764545          -1.029699
hessian_block                5       8          -0.177846           0.000990           0.384739           0.627054           0.004949          -0.315137           0.189063           0.760219          -1.062167
hessian_block                5       9          -1.567916          -0.439878           1.601369          -0.505055          -1.954029           2.381647           1.581433           2.504314          -3.469233
hessian_block                5      10          -0.005361           0.631725           0.163729           0.078373           0.318404          -0.841743          -0.097010           0.093475          -1.278107
hessian_block                5      11           0.406885          -1.040377           0.258387           1.045754           0.072543           0.241985          -0.362094          -0.295509           1.344039
hessian_block                5      12           0.728698           0.289840          -0.162842          -0.407260          -0.820438           0.091682           0.289851          -1.217952           0.998467
hessian_block                6       6           5.692231           0.623893           2.237769           0.623893           6.278018           2.601067           2.237769           2.601067          10.794327
hessian_block                6       7           0.060138          -0.230743          -0.147347           0.463941           0.256115           0.805124          -0.181514          -0.080648          -0.744607
hessian_block                6       8           0.234939           0.673385           0.486633           0.080505           0.265680           0.732775          -0.307561          -0.514526          -1.727473
hessian_block                6       9           0.226641           0.234762          -0.083677           0.344010           1.038550           0.692662          -0.184542          -0.332390          -1.229783
hessian_block                6      10          -1.950938          -1.551864          -3.452470          -1.344771          -2.695234          -4.085674          -2.329743          -3.010992          -5.761130
hessian_block                6      11           0.242128           0.569084           0.186359          -0.610685           0.802447           0.830152          -0.248904           0.428562           1.120508
hessian_block                6      12           0.177156           0.065542           0.555534           0.254926          -0.014204           0.204637           0.892393           0.787249           2.350154
hessian_block                7       7           5.353379           0.415426           1.279026           0.415426           6.154586          -1.469326           1.279026          -1.469326           7.848550
hessian_block                7       8          -0.157141          -0.182356           0.038892           0.146017          -0.422571           0.719164           0.351928          -0.579972           1.299058
hessian_block                7       9           0.286346           0.595921          -0.109148          -0.620082          -0.360182          -0.580107           0.518583          -0.461870           1.337297
hessian_block                7      10           0.165969          -0.622797           0.144708           0.285487          -0.501869          -0.266206          -0.312217          -0.858199           0.587093
hessian_block                7      11          -1.798054           0.567341          -1.916757           0.667590          -2.297664           2.654573          -1.636798           2.231182          -3.537589
hessian_block                7      12           0.240585           0.070788           0.188985          -0.616310           0.567202          -0.694290          -0.581971           0.341726          -1.497739
hessian_block                8       8           5.478685          -0.066568          -1.035586          -0.066568           5.772389           1.255254          -1.035586           1.255254           7.695845
hessian_block                8       9           0.585395          -0.631028          -0.104110           0.416353           0.102945          -0.457784          -0.043133           0.349558           1.347238
hessian_block                8      10          -0.270281          -0.201045           0.574315          -0.888594          -0.565881           0.711804          -0.544524          -0.399700           1.315101
hessian_block                8      11           0.356418          -0.243907          -0.353453           0.560330           1.247442           0.398711           0.141308          -0.451197          -1.202939
hessian_block                8      12          -1.483467           1.273447           1.524373           0.916945          -1.612812          -2.180813           1.670024          -1.731865          -3.968767
hessian_block                9       9           5.242696          -0.418619          -0.705043          -0.418619           6.517366          -1.728243          -0.705043          -1.728243           7.725592
hessian_block                9      10          -0.162412           0.159454           0.282962          -0.310853          -0.507519           0.267059          -0.291643          -0.521622           0.918551
hessian_block                9      11          -0.098450           0.908653          -0.428920          -0.741479           0.632566           0.462610           0.239032           0.366783          -1.172191
hessian_block                9      12          -0.270331          -0.418922           0.393740           0.246309          -0.101133          -0.560116          -0.098195           0.913073          -1.497892
hessian_block               10      10           5.873973           0.966431           2.092264           0.966431           7.721552           3.123133           2.092264           3.123133           9.255053
hessian_block               10      11          -0.134477          -0.292768           0.134155           0.216716          -1.655289          -0.663087          -0.068218          -0.819870          -1.153261
hessian_block               10      12          -0.280583          -0.150098          -0.472808          -0.540990          -0.141153           0.080710          -0.962186          -0.590140          -1.596866
hessian_block               11      11           5.501808           0.319745           1.031108           0.319745           7.965861          -1.117835           1.031108          -1.117835           7.784137
hessian_block               11      12          -0.034309           0.177207          -0.005046           0.535842          -0.923214           0.477311           0.751572          -0.429320           1.034275
hessian_block               12      12           5.770373           0.043861          -0.792346           0.043861           5.838432           1.553435          -0.792346           1.553435           8.578289
hessian_block_lv             1       1          21.851693          -3.824847           3.958865          -3.824847          23.496052           2.647048           3.958865           2.647048           1.756419
hessian_block_lv_atom        1       1           0.559170          -0.086460           0.002006          -0.928681           0.298666          -0.153037          -0.480879           0.294827           0.016267
hessian_block_lv_atom        1       2          -1.118513           0.169404          -0.137934          -0.829195           0.907399           0.045950          -0.413426           0.272501           0.001861
hessian_block_lv_atom        1       3          -1.570272           0.420526          -0.201052           0.533717           0.108604           0.035828          -0.832076           0.520153          -0.006691
hessian_block_lv_atom        1       4          -0.017113           0.073274          -0.029113           0.611054           0.628354           0.204211          -0.014319           0.062282           0.020642
hessian_block_lv_atom        1       5           0.607220          -0.277477           0.313612          -0.700421           0.906415           0.251419          -1.834231          -2.653609          -1.445746
hessian_block_lv_atom        1       6           1.471105          -1.301654          -0.189812           0.832317          -1.495365          -0.271694           0.133218          -4.535286          -1.587825
hessian_block_lv_atom        1       7          -1.318337          -0.057720           0.040976          -0.460824          -0.972175          -0.441313           1.873731           2.134226           1.409807
hessian_block_lv_atom        1       8           1.003823          -0.212749          -0.214932           0.272041          -0.311627           0.182616           1.140043           2.933172           1.476841
hessian_block_lv_atom        1       9           0.370477           0.257707          -0.163984           0.469854          -1.424066          -0.364928           1.985900           2.489244           1.483568
hessian_block_lv_atom        1      10          -1.860687           1.407964           0.260347          -0.967598           1.503094           0.344294           0.622312           4.162740           1.534990
hessian_block_lv_atom        1      11           1.479930          -0.161698          -0.025661           0.900461          -0.043097           0.303485          -1.714578          -2.440677          -1.417270
hessian_block_lv_atom        1      12           0.393198          -0.231112           0.345548           0.267279          -0.106199          -0.136828          -0.465695          -3.239570          -1.486447
