# 
# This is the geometry file that corresponds to the current relaxation step.
# If you do not want this file to be written, set the "write_restart_geometry" flag to .false.
#  aims_uuid : 55F68E65-BF40-4F8D-A130-5440BCF83CC8                                
# 
lattice_vector      5.85088863      0.00000000      0.00000000
lattice_vector      0.00000000      5.95703911      0.00000000
lattice_vector      0.00000000      0.00000000      7.44938335
atom_frac       0.50226164      0.00170238      0.00160354 Pd
atom_frac       0.00169286      0.00169183      0.50237382 Pd
atom_frac       0.00175015      0.50226882      0.00160894 Pd
atom_frac       0.50231880      0.50225989      0.50237068 Pd
atom_frac       0.61410790      0.11975580      0.40422842 Se
atom_frac       0.89101457      0.88481307      0.90472275 Se
atom_frac       0.11352290      0.38426863      0.60042321 Se
atom_frac       0.39042724      0.62033077      0.09975246 Se
atom_frac       0.39045279      0.88482861      0.60042558 Se
atom_frac       0.11353315      0.11974121      0.09975693 Se
atom_frac       0.89101585      0.62032973      0.40423525 Se
atom_frac       0.61412520      0.38423231      0.90472148 Se
# 
# What follows is the current estimated Hessian matrix constructed by the BFGS algorithm.
# This is NOT the true Hessian matrix of the system.
# If you do not want this information here, switch it off using the "hessian_to_restart_geometry" keyword.
# 
trust_radius             0.0122099705
hessian_block                1       1           6.292982          -0.437514          -2.402905          -0.437514           7.295862          -0.751438          -2.402905          -0.751438           4.897983
hessian_block                1       2          -0.612791           1.463887           0.411731          -0.450655           1.350146           0.360485          -0.507681           0.702068           0.306204
hessian_block                1       3          -0.915419           1.980416           0.612062           0.171787          -0.417139          -0.024078          -0.698534           1.001258           0.370986
hessian_block                1       4           0.564539           0.194419          -0.085494           0.084088          -0.521880          -0.134126          -0.073306           0.140163           0.072883
hessian_block                1       5           0.368789          -1.161676          -0.466843          -0.959012           1.376420           0.733038          -0.117252           0.064380           0.115509
hessian_block                1       6          -0.957846          -1.436100           0.059874           1.344934          -1.913311          -0.887513           2.955844          -2.964182          -1.653401
hessian_block                1       7          -0.846973           1.065659           0.529041           0.327244          -0.088479          -0.057905           0.244591          -0.160965          -0.081325
hessian_block                1       8           0.130629          -1.156466           0.073925          -0.080880          -2.325429           0.594315          -0.403770           1.601267          -0.163167
hessian_block                1       9          -0.155327           0.062268           0.203174           0.279170          -1.506073          -0.584302           0.025780          -0.208227          -0.005924
hessian_block                1      10          -3.340921           2.528375           1.737407          -1.034165           1.298928           0.407004          -0.429579           1.424264           0.268663
hessian_block                1      11           0.684257          -1.626700          -0.596247           0.731456          -0.607043          -0.319770           0.207151           0.138917           0.110740
hessian_block                1      12           0.353988          -1.476572          -0.075728           0.023546          -2.294976           0.664289           1.199663          -0.987504          -1.137286
hessian_block                2       2           7.153244           1.698413           3.187922           1.698413           9.099969           3.073846           3.187922           3.073846           5.811285
hessian_block                2       3           2.502463           2.871111           1.739396          -0.774943          -1.051576          -0.663478           1.162652           1.364669           0.923705
hessian_block                2       4           0.162194           0.536256           0.106560          -0.474371           0.777432           0.444918           0.293080           0.855952           0.442472
hessian_block                2       5          -2.875722          -0.929404          -1.588647           1.678048           0.732821           0.797820          -0.856151          -0.513613          -0.844877
hessian_block                2       6          -2.090550          -2.085845          -1.170670          -2.031886          -3.134127          -1.792621          -3.347483          -4.427664          -2.808509
hessian_block                2       7           0.862384           0.449715           0.383490          -0.805768          -2.051937          -1.046601          -0.613773          -1.735336          -0.991471
hessian_block                2       8          -0.927295          -1.374362          -0.805896          -0.427840          -1.066198          -0.664828           0.841552           0.885017           0.675861
hessian_block                2       9          -1.979518           0.442075          -0.921813          -0.702860          -2.488415          -0.836523          -1.256220          -0.287526          -0.747519
hessian_block                2      10           2.408434           2.365667           1.581213           2.233004           3.627974           2.392931           2.335388           3.554662           2.217810
hessian_block                2      11          -1.758485          -2.191025          -1.169522          -1.409946          -4.475658          -2.474299          -0.293111          -1.232338          -0.755644
hessian_block                2      12          -1.278446          -1.331948          -0.834352          -0.445739           0.326590           0.066770          -1.865588          -1.898153          -1.127455
hessian_block                3       3           8.974994          -1.073214           3.865533          -1.073214           6.467936          -1.598522           3.865533          -1.598522           5.731219
hessian_block                3       4           0.273509          -0.223031          -0.083660          -0.248342           0.012206          -0.027013           0.548612          -0.294371           0.286224
hessian_block                3       5          -1.755798           0.385840          -1.008969           1.540608           0.084768           1.260748          -0.165754           0.255855           0.001380
hessian_block                3       6          -3.083804           0.990345          -1.925091          -2.620089          -1.121354          -0.859761          -5.353989           2.017045          -3.553924
hessian_block                3       7           1.388559          -0.195161           0.997697          -0.303758           0.069416          -0.210773          -0.817651           0.242135          -0.422798
hessian_block                3       8          -3.178678           0.002695          -1.455763          -1.473961          -0.127351          -0.960455           0.355411          -0.469464           0.309789
hessian_block                3       9          -0.209597           0.330825           0.181792          -1.949282           0.304018          -1.224239          -0.714646           0.351848          -0.179815
hessian_block                3      10           3.319695          -0.169965           1.907864           4.137863          -2.965268           2.987371           3.415412          -0.197011           1.626826
hessian_block                3      11          -2.200605           0.478768          -1.245500          -1.945919           0.604854          -1.183924          -0.077216           0.212649          -0.021364
hessian_block                3      12          -3.549408           0.076051          -1.698024          -0.915431          -0.213484          -0.549359          -3.407172           0.167394          -1.970364
hessian_block                4       4           5.970349           0.146150          -1.982642           0.146150           7.053033           1.610755          -1.982642           1.610755           4.989043
hessian_block                4       5          -0.449597           0.624642           0.039354           0.071869          -2.282246          -0.905385           0.008165          -1.402093          -0.732988
hessian_block                4       6          -0.015987           0.374832          -0.223243          -0.189342          -0.539980          -0.692736           0.432115          -0.502664          -0.864192
hessian_block                4       7          -2.045330          -0.836394           0.911917          -0.154994          -0.191308           0.219591           0.742359          -0.173557          -0.672801
hessian_block                4       8          -0.258441          -0.166918          -0.319283           0.046437          -0.544956          -0.250912          -0.248733          -0.059944           0.175293
hessian_block                4       9          -0.276063           0.657456           0.150488           0.158784          -2.326978          -1.315492           0.039001          -0.852828          -0.580993
hessian_block                4      10          -0.505164          -0.296757           0.304782          -0.270973           1.007222           0.920240          -0.029330           0.732363           0.846971
hessian_block                4      11          -1.793365          -0.110038           0.594061          -0.762233          -1.413336          -0.488931           0.945440          -0.021656          -0.609504
hessian_block                4      12          -0.060735           0.245652          -0.243820           0.446657           0.617814           0.201128           0.156215           0.385842          -0.250545
hessian_block                5       5           5.898521          -1.274720          -0.985821          -1.274720           7.543871          -1.210885          -0.985821          -1.210885           7.704748
hessian_block                5       6           1.438675          -2.020536           0.003652           1.464797          -1.986398           0.831938           2.356935          -3.707427           1.198886
hessian_block                5       7          -1.019947           2.023130          -0.228315          -0.638702          -0.245364           0.383233           0.640463           0.386413          -0.911147
hessian_block                5       8           0.623050          -0.550627           0.536817           0.860382          -0.570774          -0.322441          -0.253770           1.561973          -1.030997
hessian_block                5       9          -1.375069          -0.323686           1.677102           0.555717          -3.178972           2.501184           1.849317           2.266556          -3.362712
hessian_block                5      10          -1.546994           2.511095          -0.017707          -1.414320           2.098799          -0.985777          -1.401177           2.004917          -1.303284
hessian_block                5      11           1.390246          -2.178246           0.387224           1.667918          -0.904533           0.264313          -0.450627          -0.417106           1.236816
hessian_block                5      12           0.869756          -0.517924          -0.241959          -0.140477          -1.021366           0.133905           1.269786          -2.770661           1.030528
hessian_block                6       6           7.803471           2.826799           6.188430           2.826799           8.528356           6.712595           6.188430           6.712595          17.359818
hessian_block                6       7          -1.218146          -1.524444          -2.616872           0.879554           0.641317           1.677062           0.353098           0.478405           0.462824
hessian_block                6       8           0.851801           1.428849           1.963503           0.924756           1.126290           1.961258          -1.419496          -1.678831          -3.368101
hessian_block                6       9          -0.006752           0.038041          -0.149304           2.068224           2.817839           3.910163           0.163411           0.028441          -0.400173
hessian_block                6      10          -4.570219          -4.288066          -8.211134          -3.891541          -5.293532          -8.788525          -5.034979          -5.796735         -10.231638
hessian_block                6      11           1.888957           2.237417           3.323274           0.784073           2.237648           3.108514          -0.018899           0.610897           1.248537
hessian_block                6      12           1.526308           1.312989           2.458682           0.585439           0.284277           1.003821           3.023913           3.045921           5.711739
hessian_block                7       7           6.089680           0.210829           0.982880           0.210829           6.177664          -1.391817           0.982880          -1.391817           7.917262
hessian_block                7       8          -0.599339           0.011629           0.164577          -0.376013          -0.235287           0.997223           1.079438          -0.861389           0.900324
hessian_block                7       9           0.420392           0.551466          -0.232686          -1.655222          -0.035576          -0.138393           0.336271          -0.420239           1.355972
hessian_block                7      10           1.769965          -1.160516          -0.551913           1.783753          -0.949801          -0.928592           1.359942          -1.429084          -0.254999
hessian_block                7      11          -2.746484           0.834426          -1.526922          -0.188831          -2.004463           3.082452          -1.766107           2.260066          -3.401210
hessian_block                7      12          -0.488854           0.248588           0.614980          -0.757019           0.560844          -0.657966          -1.969381           0.877855          -0.798766
hessian_block                8       8           5.171361           0.421849          -1.485787           0.421849           5.919916           0.983365          -1.485787           0.983365           8.042710
hessian_block                8       9           0.204545          -0.512191          -0.156375           0.946039           0.789135          -1.364755           0.070188           0.525503           1.056168
hessian_block                8      10          -1.084907          -1.186053           1.878303          -1.779314          -1.543622           2.029605          -1.601498          -1.235796           2.426416
hessian_block                8      11           0.956956           0.404462          -1.266953           1.161221           1.646371          -0.165800           0.423011          -0.497295          -1.173418
hessian_block                8      12          -0.323774           1.399055           1.080182           1.055404          -1.421070          -2.461042           2.436208          -1.129936          -4.749013
hessian_block                9       9           5.020797          -0.599048          -0.777486          -0.599048           7.920568          -1.435632          -0.777486          -1.435632           7.704787
hessian_block                9      10           0.064238          -1.981845          -0.176576          -0.103190          -2.561003          -0.165885          -0.266195          -2.709701           0.331753
hessian_block                9      11          -0.243712           2.239983          -0.191359          -0.717041           1.761975           0.748608           0.384020           0.532452          -1.064632
hessian_block                9      12           0.101979           0.640339           0.632320           0.173024           0.150507          -0.550617          -0.092719           2.665240          -1.005046
hessian_block               10      10           9.098327           4.121628           5.351012           4.121628          10.717847           6.303805           5.351012           6.303805          12.273827
hessian_block               10      11          -2.191514          -2.223886          -1.991973          -1.456448          -3.295660          -2.208829          -0.308887          -1.007203          -1.195645
hessian_block               10      12          -1.855030          -1.558856          -1.707020          -0.987116          -0.494858          -0.442852          -3.494363          -3.164974          -3.904836
hessian_block               11      11           6.723388           1.405567           1.181161           1.405567           8.745530          -1.104078           1.181161          -1.104078           7.641604
hessian_block               11      12           0.856274           0.730186          -0.225939           0.729271          -0.648663           0.524696           2.502757           0.741746           1.085586
hessian_block               12      12           5.413852           0.232439           0.240680           0.232439           5.801410           2.067229           0.240680           2.067229          10.217326
hessian_block_lv             1       1          23.477169          -3.649345           5.316169          -3.649345          23.472201           2.696035           5.316169           2.696035           2.561568
hessian_block_lv_atom        1       1          -0.115091          -0.127469          -0.456656           0.146646           0.376264           0.612885           0.270122           0.319759           0.451662
hessian_block_lv_atom        1       2           0.135099           0.250887           0.721245           0.939402           1.033421           1.216244           0.435988           0.332947           0.573450
hessian_block_lv_atom        1       3           0.322012           0.552092           1.084991           0.007773           0.084829          -0.280130           0.538040           0.591167           0.846381
hessian_block_lv_atom        1       4           0.007555           0.060460          -0.088455           0.730542           0.657864           0.290051           0.180124           0.080100           0.164480
hessian_block_lv_atom        1       5          -0.140307          -0.303409          -0.297238           0.784962           1.033925           1.210138          -1.850189          -2.690280          -1.591217
hessian_block_lv_atom        1       6          -0.762576          -1.447574          -1.498052          -1.373898          -1.682157          -1.676211          -3.405860          -4.702336          -3.790874
hessian_block_lv_atom        1       7           0.015854           0.078356           0.913127          -0.877669          -1.057933          -0.793591           1.218957           2.090411           1.071305
hessian_block_lv_atom        1       8          -0.274201          -0.250415          -0.682170          -0.219574          -0.308941          -0.176449           2.040449           2.959073           2.063151
hessian_block_lv_atom        1       9           0.147578           0.233441          -0.153706          -1.352770          -1.573417          -1.495959           1.578376           2.465548           1.281125
hessian_block_lv_atom        1      10           0.811244           1.566818           1.835986           1.543662           1.716337           1.958981           2.995269           4.307969           3.094260
hessian_block_lv_atom        1      11          -0.164191          -0.315263          -1.095271          -0.231221          -0.093718          -0.434847          -1.650546          -2.475834          -1.567223
hessian_block_lv_atom        1      12           0.017026          -0.297920          -0.283801          -0.097851          -0.186472          -0.431111          -2.350730          -3.278521          -2.596502
symmetry_n_params 39 3 36
symmetry_params a1 b2 c3 x0 x1 x2 x3 x4 x5 x6 x7 x8 x9 x10 x11 x12 x13 x14 x15 x16 x17 x18 x19 x20 x21 x22 x23 x24 x25 x26 x27 x28 x29 x30 x31 x32 x33 x34 x35
symmetry_lv a1 , 0 , 0 
symmetry_lv 0 , b2 , 0 
symmetry_lv 0 , 0 , c3
symmetry_frac x0 , x1 , x2
symmetry_frac x3 , x4 , x5
symmetry_frac x6 , x7 , x8
symmetry_frac x9 , x10 , x11
symmetry_frac x12 , x13 , x14
symmetry_frac x15 , x16 , x17
symmetry_frac x18 , x19 , x20
symmetry_frac x21 , x22 , x23
symmetry_frac x24 , x25 , x26
symmetry_frac x27 , x28 , x29
symmetry_frac x30 , x31 , x32
symmetry_frac x33 , x34 , x35
