# 
# This is the geometry file that corresponds to the current relaxation step.
# If you do not want this file to be written, set the "write_restart_geometry" flag to .false.
#  aims_uuid : D56F8187-B9E8-4086-A7B2-5B94F9DE4553                                
# 
lattice_vector      5.83779319      0.00000000      0.00000000
lattice_vector      0.00000000      5.95034059      0.00000000
lattice_vector      0.00000000      0.00000000      7.51758567
atom_frac       0.50115095      0.00040488      0.00027408 Pd
atom_frac       0.00040390      0.00047149      0.50139375 Pd
atom_frac       0.00051456      0.50114768      0.00029953 Pd
atom_frac       0.50126191      0.50121397      0.50136998 Pd
atom_frac       0.61289662      0.11861738      0.40369958 Se
atom_frac       0.89030219      0.88376035      0.90434126 Se
atom_frac       0.11215214      0.38306046      0.59878411 Se
atom_frac       0.38943145      0.61939225      0.09791340 Se
atom_frac       0.38949248      0.88378067      0.59879098 Se
atom_frac       0.11214902      0.11870377      0.09794631 Se
atom_frac       0.89023884      0.61930712      0.40371121 Se
atom_frac       0.61290328      0.38303734      0.90437316 Se
# 
# What follows is the current estimated Hessian matrix constructed by the BFGS algorithm.
# This is NOT the true Hessian matrix of the system.
# If you do not want this information here, switch it off using the "hessian_to_restart_geometry" keyword.
# 
trust_radius             0.0122099705
hessian_block                1       1           6.330687          -0.965618          -2.555041          -0.965618           8.866481          -0.217789          -2.555041          -0.217789           5.122529
hessian_block                1       2          -0.996919           2.923384           0.917222          -0.434712           2.393164           0.710446          -0.493279           1.365883           0.481359
hessian_block                1       3          -1.404353           4.098273           1.323999           0.006969          -0.445075          -0.029136          -0.995407           2.304472           0.829559
hessian_block                1       4           0.516347           0.266079          -0.040382           0.450357          -1.080957          -0.319648           0.075697           0.046866           0.018423
hessian_block                1       5           0.554463          -2.120944          -0.795317          -1.623350           3.320206           1.362572          -0.122625          -0.242529           0.033166
hessian_block                1       6          -0.136856          -4.022637          -0.810595           1.912781          -4.244872          -1.635836           3.940400          -7.243407          -3.037904
hessian_block                1       7          -1.103977           2.135678           0.842435           0.488396          -0.658358          -0.208515           0.011866           0.125209          -0.013574
hessian_block                1       8           0.377142          -2.157247          -0.264026          -0.061383          -2.727475           0.424679          -0.873098           3.087434           0.357769
hessian_block                1       9          -0.105525          -0.008538           0.176795           0.644223          -2.988082          -1.078596          -0.207651           0.225221           0.126052
hessian_block                1      10          -4.018383           5.247511           2.594593          -1.346929           3.515389           1.096098          -1.038369           4.393671           1.206218
hessian_block                1      11           1.136457          -3.193902          -1.104218           0.463143          -0.941228          -0.454454           0.219990          -0.204847           0.041405
hessian_block                1      12           0.416825          -2.202041          -0.285468           0.466122          -3.362168           0.350177           2.037518          -3.640182          -2.063138
hessian_block                2       2           8.400585           2.318852           3.552680           2.318852           8.607299           2.698928           3.552680           2.698928           5.577378
hessian_block                2       3           4.228134           3.504268           2.100835          -0.643213          -0.534964          -0.306569           2.248068           1.814766           1.161274
hessian_block                2       4           0.210854           0.558771           0.104069          -1.172502          -0.199886          -0.211267           0.090925           0.394757           0.155777
hessian_block                2       5          -3.622720          -1.088645          -1.658118           3.533018           2.185319           1.747885          -1.052807          -0.443469          -0.788348
hessian_block                2       6          -4.458732          -3.720938          -2.197933          -3.979666          -3.975073          -2.321227          -6.920600          -6.010683          -3.762273
hessian_block                2       7           1.810173           0.957869           0.733929          -1.367728          -2.541279          -1.382622          -0.165938          -0.922777          -0.432746
hessian_block                2       8          -1.720059          -1.653640          -0.958809          -0.660683          -0.867196          -0.490726           2.235030           1.925587           1.306980
hessian_block                2       9          -2.062663           0.306536          -1.006590          -1.998747          -3.152403          -1.248428          -0.741742           0.409769          -0.283813
hessian_block                2      10           4.744446           3.572232           2.345628           3.853841           3.689004           2.397539           4.732840           4.400538           2.714534
hessian_block                2      11          -3.168687          -3.045312          -1.726412          -1.278866          -3.237383          -1.601676          -0.558882          -1.285763          -0.800202
hessian_block                2      12          -1.798503          -1.275283          -0.796001          -1.527691          -0.719580          -0.647718          -4.336795          -3.692098          -2.228058
hessian_block                3       3          11.261219          -0.770955           5.319980          -0.770955           6.220365          -1.435860           5.319980          -1.435860           6.657700
hessian_block                3       4           0.290833          -0.226035          -0.045068          -1.406092           0.290121          -0.702718           0.184781          -0.110141           0.068000
hessian_block                3       5          -2.686078           0.194905          -1.618874           4.298101          -0.013093           2.913347          -0.382612           0.138183          -0.126984
hessian_block                3       6          -6.479553           1.004624          -4.004393          -5.276199          -1.389219          -2.507573         -10.208683           1.532156          -6.542622
hessian_block                3       7           2.769734          -0.105859           1.817491          -1.206110           0.113419          -0.702936          -0.003779          -0.031951           0.003527
hessian_block                3       8          -4.176587          -0.138879          -2.106276          -1.665250          -0.318925          -1.133837           2.365782          -0.515749           1.534199
hessian_block                3       9          -0.351818           0.371544           0.099594          -3.798283           0.175028          -2.355456           0.127061           0.163060           0.287709
hessian_block                3      10           6.564372           0.054149           3.882894           6.149730          -2.379277           4.266034           6.590306           0.244429           3.589627
hessian_block                3      11          -4.247822           0.410918          -2.494341          -1.346573          -0.025404          -0.940262          -0.438897           0.131500          -0.210874
hessian_block                3      12          -4.202170          -0.158170          -2.103671          -2.580911          -0.045950          -1.519979          -6.978774           0.220079          -4.149249
hessian_block                4       4           5.900146           0.095643          -1.983776           0.095643           6.936911           1.440885          -1.983776           1.440885           4.867395
hessian_block                4       5          -0.433881           1.215754           0.244955           0.219553          -2.880627          -0.958064          -0.006371          -1.154188          -0.636622
hessian_block                4       6          -0.127626           1.339704          -0.062582          -0.256795           0.660400          -0.343264           0.273145           1.662976          -0.256685
hessian_block                4       7          -1.921537          -1.304045           0.773982          -0.285857          -0.061470           0.211315           0.834559           0.058002          -0.466846
hessian_block                4       8          -0.196247           0.399699          -0.163964           0.093966          -0.153844          -0.072309          -0.154829          -0.551403           0.115924
hessian_block                4       9          -0.275547           0.637530           0.120541           0.023302          -1.647542          -1.108212           0.098394          -0.790784          -0.448444
hessian_block                4      10          -0.375811          -1.564614          -0.018550          -0.248423          -0.513811           0.359630           0.046306          -0.908154           0.349628
hessian_block                4      11          -1.912389           0.533184           0.759438          -0.611786          -0.525019           0.006741           0.886310           0.179546          -0.544234
hessian_block                4      12          -0.109231           0.775380          -0.021448           0.371580           0.822748           0.131797          -0.012359           1.296751          -0.120453
hessian_block                5       5           6.243045          -2.555868          -0.917598          -2.555868           9.851373          -1.578877          -0.917598          -1.578877           7.646867
hessian_block                5       6           2.970610          -5.181190           0.412254           2.580577          -4.955527           1.084362           4.417662          -9.041210           1.541122
hessian_block                5       7          -1.633757           3.311459          -0.386410          -0.182031          -0.802712           0.440795           0.184795           0.556151          -1.032288
hessian_block                5       8           1.003028          -1.895482           0.621546           0.886009          -1.186385          -0.337459          -1.180267           3.316979          -1.246273
hessian_block                5       9          -1.294324          -0.392233           1.698706           1.381705          -4.992104           2.698660           1.407561           2.671404          -3.459761
hessian_block                5      10          -2.947695           5.860740          -0.296541          -2.155341           5.020130          -1.030166          -2.698989           5.735559          -1.463512
hessian_block                5      11           2.308392          -4.113689           0.665729           1.193903          -1.652644           0.045504          -0.301296          -0.778592           1.196285
hessian_block                5      12           1.104829          -1.461060          -0.233269           0.649974          -2.246910           0.379185           2.915487          -5.947155           1.438211
hessian_block                6       6          11.952925           6.547235          12.875513           6.547235          11.541377          12.158382          12.875513          12.158382          26.967040
hessian_block                6       7          -2.971803          -3.031514          -5.332941           1.735061           1.533461           3.113990          -0.075445          -0.279257          -0.738629
hessian_block                6       8           2.421634           2.642360           4.157075           1.569557           1.420948           2.594102          -3.777445          -3.835297          -7.196332
hessian_block                6       9           0.093519           0.184364           0.079809           4.483808           4.830425           7.594643          -0.481043          -0.800766          -1.752465
hessian_block                6      10          -8.853159          -7.900191         -14.590181          -7.333806          -7.702987         -13.079750          -9.607927          -9.406434         -16.515432
hessian_block                6      11           4.483647           4.492099           7.470764           1.276303           1.859724           2.594978           0.448254           0.989765           1.770269
hessian_block                6      12           2.671303           2.084949           3.838040           2.302279           2.068369           4.123822           7.281342           6.897145          12.625776
hessian_block                7       7           6.690906          -0.093393           1.207518          -0.093393           6.132009          -1.259120           1.207518          -1.259120           7.500553
hessian_block                7       8          -1.327781           0.514078          -0.266673          -0.625749           0.050220           0.608849           2.053278          -1.263570           1.036371
hessian_block                7       9           0.343378           0.552866          -0.183415          -2.521607           0.414119          -0.507780           0.668732          -0.398620           1.105595
hessian_block                7      10           3.499134          -2.044537           0.097688           3.125391          -1.866327           0.162531           3.242605          -2.456190           0.689312
hessian_block                7      11          -3.724921           1.370469          -1.883191          -0.313460          -1.497806           2.086738          -1.916938           2.257604          -3.426421
hessian_block                7      12          -0.863642           0.518784           0.242020          -1.534769           0.831749          -0.596594          -3.703680           1.647869          -1.122990
hessian_block                8       8           5.529404           0.451213          -2.422535           0.451213           5.795814           0.525617          -2.422535           0.525617           9.375595
hessian_block                8       9           0.260020          -0.462836          -0.200269           1.883029           1.109611          -2.765551          -0.334868           0.208616           1.351672
hessian_block                8      10          -2.587209          -1.677884           4.292544          -2.644005          -1.514555           4.062961          -2.994878          -1.546063           5.030292
hessian_block                8      11           1.978858           0.764485          -2.753600           0.740601           1.037265          -0.633912           0.614157          -0.431343          -1.383601
hessian_block                8      12           0.003708           1.388557           0.415410           1.858272          -0.998453          -3.353095           4.119251          -0.350127          -7.180731
hessian_block                9       9           5.005338          -0.503636          -0.742590          -0.503636           9.157957          -1.922779          -0.742590          -1.922779           7.574941
hessian_block                9      10          -0.078546          -4.345915           0.620936          -0.284660          -4.292583           0.843946          -0.441470          -5.206265           1.315149
hessian_block                9      11          -0.149669           3.612018          -0.688902          -0.588602           1.823528           0.043001           0.404498           0.746905          -1.109427
hessian_block                9      12           0.181748           1.140104           0.274113           0.187663           1.209070          -0.652065          -0.005610           5.152859          -1.605343
hessian_block               10      10          13.274849           7.138784           9.605651           7.138784          12.096213           8.950289           9.605651           8.950289          16.316852
hessian_block               10      11          -4.835230          -4.281403          -4.867453          -1.411680          -2.006899          -1.514913          -0.670282          -1.245827          -1.514945
hessian_block               10      12          -2.820859          -1.973178          -2.568622          -2.928597          -2.397272          -2.686466          -7.864378          -6.783285          -8.615858
hessian_block               11      11           8.214398           1.595596           1.485482           1.595596           6.737197          -1.112076           1.485482          -1.112076           7.583394
hessian_block               11      12           1.482880           0.281422          -0.172397           1.855538           0.075694           0.753129           5.136704           1.480333           1.500216
hessian_block               12      12           5.499024           0.880537           1.411294           0.880537           6.409728           3.717809           1.411294           3.717809          14.623483
hessian_block_lv             1       1          26.181138          -2.187535           6.632704          -2.187535          24.191781           3.396325           6.632704           3.396325           3.256629
hessian_block_lv_atom        1       1          -1.149416          -0.569813          -0.784360           2.829846           1.852240           2.029215           1.374195           0.861551           0.825492
hessian_block_lv_atom        1       2           2.891141           1.642538           1.955599           3.622703           2.131608           1.859837           1.938453           0.957504           1.036701
hessian_block_lv_atom        1       3           4.294585           2.495612           2.801747          -0.491897          -0.008575          -0.188777           2.995175           1.762267           1.837130
hessian_block_lv_atom        1       4           0.151905           0.128898           0.012935           0.230031           0.195874          -0.373857           0.329181           0.083811           0.026291
hessian_block_lv_atom        1       5          -2.071647          -1.208996          -1.031302           3.730394           2.667985           2.862330          -2.194416          -2.740408          -1.648868
hessian_block_lv_atom        1       6          -4.768966          -3.602749          -3.611270          -5.364235          -3.686690          -3.507489         -10.259418          -8.032795          -6.856343
hessian_block_lv_atom        1       7           1.922744           1.052156           1.772323          -1.315637          -1.290338          -1.108535           0.840155           2.041887           1.273441
hessian_block_lv_atom        1       8          -2.000632          -1.060940          -1.495075          -1.410802          -0.825187          -0.469216           4.308572           4.142234           3.180041
hessian_block_lv_atom        1       9           0.183399           0.240304          -0.227052          -4.182299          -2.999296          -2.656273           1.588081           2.561550           1.570781
hessian_block_lv_atom        1      10           5.053334           3.675390           3.853505           5.627015           3.541288           3.491633           7.581436           6.427098           5.092250
hessian_block_lv_atom        1      11          -3.070574          -1.846071          -2.478592          -2.067101          -0.682645          -0.553502          -1.884611          -2.500971          -1.634948
hessian_block_lv_atom        1      12          -1.435872          -0.946327          -0.768458          -1.208015          -0.896263          -1.385365          -6.616803          -5.563726          -4.701969
symmetry_n_params 39 3 36
symmetry_params a1 b2 c3 x0 x1 x2 x3 x4 x5 x6 x7 x8 x9 x10 x11 x12 x13 x14 x15 x16 x17 x18 x19 x20 x21 x22 x23 x24 x25 x26 x27 x28 x29 x30 x31 x32 x33 x34 x35
symmetry_lv a1 , 0 , 0 
symmetry_lv 0 , b2 , 0 
symmetry_lv 0 , 0 , c3
symmetry_frac x0 , x1 , x2
symmetry_frac x3 , x4 , x5
symmetry_frac x6 , x7 , x8
symmetry_frac x9 , x10 , x11
symmetry_frac x12 , x13 , x14
symmetry_frac x15 , x16 , x17
symmetry_frac x18 , x19 , x20
symmetry_frac x21 , x22 , x23
symmetry_frac x24 , x25 , x26
symmetry_frac x27 , x28 , x29
symmetry_frac x30 , x31 , x32
symmetry_frac x33 , x34 , x35
