# 
# This is the geometry file that corresponds to the current relaxation step.
# If you do not want this file to be written, set the "write_restart_geometry" flag to .false.
#  aims_uuid : BBF8FD90-B73F-4A53-A916-1C129A38AB40                                
# 
lattice_vector      5.69538198      0.00000000      0.00000000
lattice_vector      0.00000000      5.89264161      0.00000000
lattice_vector      0.00000000      0.00000000    101.32682268
atom_frac       0.71682774     -0.00269947      0.49985558 Se
atom_frac       0.60860177      0.61639909      0.49231314 Pd
atom_frac       0.00042846      0.49724881      0.49985473 Se
atom_frac       0.10856288      0.11644501      0.49231301 Pd
atom_frac       0.21688341      0.73551744      0.48478149 Se
atom_frac       0.50037143      0.23556913      0.48478230 Se
# 
# What follows is the current estimated Hessian matrix constructed by the BFGS algorithm.
# This is NOT the true Hessian matrix of the system.
# If you do not want this information here, switch it off using the "hessian_to_restart_geometry" keyword.
# 
trust_radius             0.1120691506
hessian_block                1       1           0.848298           0.003884           3.341622           0.003884           1.209811          -2.850088           3.341622          -2.850088         268.293270
hessian_block                1       2           0.004745          -0.151704          -0.740966          -0.167596          -0.605836          -4.372379           0.061535          -3.455150         -52.395282
hessian_block                1       3          -0.062400           0.029823          -1.888581           0.035045           0.248925          -2.065906           1.682492          -0.938517          75.803113
hessian_block                1       4          -0.346628          -0.064646           2.959712          -0.163308          -0.021660           0.458744           1.797676          -0.901758         -51.956951
hessian_block                1       5           0.045087           0.087949           1.917945           0.088142          -0.203080           1.860967          -1.711516           2.084664         -43.650227
hessian_block                1       6          -0.200101           0.094694          -5.589733           0.203832          -0.324189           6.968662          -5.171809           6.060850        -105.027117
hessian_block                2       2           1.251076           0.020183           5.013091           0.020183           1.425931           3.704826           5.013091           3.704826         228.463516
hessian_block                2       3          -0.379823           0.166820          -1.859425           0.288698          -0.267784           2.295908          -1.046412          -1.668505         -35.651922
hessian_block                2       4          -0.214200          -0.013567          -1.467433          -0.281834           0.045254          -0.620716          -1.603933           1.632245          71.533775
hessian_block                2       5          -0.417614          -0.089086          -1.695834           0.281514           0.023530           1.921290          -0.970586           1.719115         -52.242992
hessian_block                2       6           0.044816           0.083245          -0.051934          -0.156857          -0.317124          -3.846157          -0.651194          -1.015302         -68.640289
hessian_block                3       3           0.868165          -0.048069          -3.965351          -0.048069           1.405396          -3.048297          -3.965351          -3.048297         259.377567
hessian_block                3       4           0.001139          -0.123807           0.454456           0.186938          -0.624157          -3.357881           1.404353          -2.652957         -45.985531
hessian_block                3       5          -0.174467          -0.139435           4.960312          -0.279354          -0.194546           6.375539           4.684184           5.158844        -116.485933
hessian_block                3       6           0.036386          -0.012432          -2.085497          -0.056157          -0.263863           2.637661           1.624820           0.312408         -45.990487
hessian_block                4       4           1.197709           0.238522          -4.809859           0.238522           1.399353           4.502269          -4.809859           4.502269         211.287487
hessian_block                4       5           0.020114           0.156830           0.827280          -0.046977          -0.547353          -2.148624           0.191002          -2.387277         -43.969931
hessian_block                4       6          -0.369134          -0.137147           2.384484           0.010476           0.052534          -0.431175           2.672123           1.404861         -49.842042
hessian_block                5       5           0.949434          -0.049112          -4.056946          -0.049112           1.158439          -4.690272          -4.056946          -4.690272         264.363493
hessian_block                5       6          -0.133554           0.005787           1.863862           0.032853           0.066980          -1.885073          -1.952757          -3.318899          83.052396
hessian_block                6       6           0.910586          -0.034147           3.478818          -0.034147           1.089632          -3.443917           3.478818          -3.443917         277.514346
hessian_block_lv             1       1          18.147504           9.248806          -0.471091           9.248806          10.349776          -0.056049          -0.471091          -0.056049           0.071635
hessian_block_lv_atom        1       1          -0.107166           0.178782          -0.005130          -0.520201           0.156814          -0.026133           9.138617           8.897422           0.713552
hessian_block_lv_atom        1       2          -0.191304          -0.211432          -0.019016           0.066630          -0.224752           0.005121          -4.663861          -5.893149          -0.550483
hessian_block_lv_atom        1       3           0.154726          -0.170080           0.007440          -0.830351          -0.203515          -0.060843           7.844013           7.217250           0.559289
hessian_block_lv_atom        1       4           0.104108           0.199943           0.015262           0.207183           0.123434           0.020113          -1.880375          -4.360308          -0.281259
hessian_block_lv_atom        1       5          -0.060603           0.208939          -0.003010           0.383558          -0.107036           0.013539          -5.832714          -3.741802          -0.294081
hessian_block_lv_atom        1       6           0.100239          -0.206153           0.004454           0.693181           0.255055           0.048203          -4.605680          -2.119413          -0.147018
