# 
# This is the geometry file that corresponds to the current relaxation step.
# If you do not want this file to be written, set the "write_restart_geometry" flag to .false.
#  aims_uuid : FBDB5AE5-CFC2-4185-A972-51D7470B4511                                
# 
lattice_vector      5.84149640      0.00000000      0.00000000
lattice_vector      0.00000000      5.95249672      0.00000000
lattice_vector      0.00000000      0.00000000      7.49741726
atom_frac       0.50108568      0.00108086      0.00085666 Pd
atom_frac       0.00105326      0.00109235      0.50141855 Pd
atom_frac       0.00116521      0.50111989      0.00092290 Pd
atom_frac       0.50118922      0.50113264      0.50134966 Pd
atom_frac       0.61275385      0.11916656      0.40362433 Se
atom_frac       0.88959481      0.88315620      0.90341118 Se
atom_frac       0.11272362      0.38312759      0.59886179 Se
atom_frac       0.38950640      0.61917359      0.09862667 Se
atom_frac       0.38956088      0.88318178      0.59886302 Se
atom_frac       0.11278144      0.11918432      0.09867806 Se
atom_frac       0.88956800      0.61916339      0.40362497 Se
atom_frac       0.61271723      0.38312043      0.90346181 Se
# 
# What follows is the current estimated Hessian matrix constructed by the BFGS algorithm.
# This is NOT the true Hessian matrix of the system.
# If you do not want this information here, switch it off using the "hessian_to_restart_geometry" keyword.
# 
trust_radius             0.0122154887
hessian_block                1       1           5.880449           0.091056          -2.204405           0.091056           6.264999          -1.106436          -2.204405          -1.106436           4.836748
hessian_block                1       2           0.034506           0.406280           0.062686           0.392835           0.423881          -0.035663           0.045192           0.080382          -0.010948
hessian_block                1       3           0.045126           0.570947           0.088341          -0.123370          -0.198022           0.031834          -0.142265           0.173624           0.084119
hessian_block                1       4           0.484871           0.323145          -0.042822           0.089783          -0.199837          -0.110204           0.104944           0.021060          -0.013759
hessian_block                1       5          -0.109967          -0.504870          -0.274039          -0.375601           0.042884           0.221166          -0.266334           0.209178           0.327011
hessian_block                1       6          -1.749557           0.158606           0.715684           0.390095          -0.415501          -0.185463           1.173891          -0.236698          -0.342790
hessian_block                1       7          -0.311149           0.121446           0.216339           0.169018           0.316083           0.205025           0.095334          -0.257760          -0.199326
hessian_block                1       8          -0.243712          -0.679066           0.308952          -0.401236          -2.046302           0.706436           0.064588           0.646073          -0.598215
hessian_block                1       9          -0.133160           0.034605           0.222558          -0.359991          -0.339112          -0.108825          -0.031957          -0.388319          -0.204977
hessian_block                1      10          -2.227135           0.684801           0.954709           0.172852          -0.249009          -0.355140           0.813529          -0.301097          -0.685455
hessian_block                1      11           0.036442          -0.381430          -0.190248           0.083542          -0.238512          -0.173506           0.029496           0.360833           0.330949
hessian_block                1      12          -0.140805          -0.825519           0.142244          -0.128982          -1.714531           0.910778           0.317989           0.799161          -0.421492
hessian_block                2       2           6.006942           0.358525           2.288067           0.358525           6.674584           1.494379           2.288067           1.494379           4.849198
hessian_block                2       3           0.851575           0.644429           0.288819          -0.432417          -0.286443          -0.132362           0.213590           0.043248           0.044160
hessian_block                2       4           0.291301           0.552929           0.128398          -0.396621           0.105336           0.055609           0.016390           0.216591           0.053405
hessian_block                2       5          -2.099219           0.150298          -0.841924           0.378091          -0.357960           0.158864          -0.575905           0.094496          -0.578846
hessian_block                2       6          -0.473559          -0.345357          -0.147121          -0.211328          -0.652835          -0.290811          -0.098687           0.003356          -0.208533
hessian_block                2       7          -0.122260          -0.539573          -0.273024          -0.420208          -1.637677          -0.897642          -0.545138          -1.140291          -0.486446
hessian_block                2       8          -0.290450          -0.393382          -0.207849           0.081320          -0.141772          -0.024006          -0.171728          -0.198275           0.077549
hessian_block                2       9          -2.028678           0.338398          -1.008757           0.609548          -0.781069           0.215824          -1.370800          -0.102553          -0.473139
hessian_block                2      10           0.387117          -0.076000           0.113796           0.154067           0.282580           0.350918           0.157759           0.283975           0.346881
hessian_block                2      11          -0.483876          -0.857113          -0.295435          -0.528423          -2.357632          -1.033973           0.030339          -0.712486          -0.534243
hessian_block                2      12          -0.507488          -0.225991          -0.090162           0.001165           0.376033           0.022819          -0.006575           0.053224           0.022828
hessian_block                3       3           6.485955          -0.446907           2.422470          -0.446907           6.219369          -1.260169           2.422470          -1.260169           4.889666
hessian_block                3       4           0.395749          -0.261011          -0.002960          -0.397693           0.285237          -0.154495           0.047361          -0.046717          -0.022606
hessian_block                3       5          -0.537952           0.092413          -0.341371          -0.139519           0.305315           0.208282           0.306521           0.018585           0.373716
hessian_block                3       6          -0.821688           0.632483          -0.505672           0.082501          -1.850130           0.821199          -0.509321           0.706829          -0.502458
hessian_block                3       7           0.057494           0.070191           0.217069           0.164566          -0.017305           0.196020          -0.505646           0.042895          -0.341110
hessian_block                3       8          -2.172143          -0.316299          -0.861664          -0.587991          -0.459072          -0.464471          -1.071049          -0.190880          -0.620778
hessian_block                3       9          -0.315391           0.354066           0.139751          -0.032437          -0.122681          -0.018280          -0.740668           0.301627          -0.310700
hessian_block                3      10           0.403337           0.491688           0.109949           0.871520          -1.898694           0.987887           0.080326           0.819204          -0.515955
hessian_block                3      11          -0.453489           0.179951          -0.223137          -0.238027          -0.161813          -0.277032           0.398541          -0.001883           0.353508
hessian_block                3      12          -2.372662          -0.240788          -1.025759          -0.491391          -0.168738          -0.255812          -0.805695          -0.288960          -0.329698
hessian_block                4       4           5.912025           0.004703          -2.008675           0.004703           6.369298           1.356216          -2.008675           1.356216           4.821435
hessian_block                4       5          -0.502473           0.731164           0.299870           0.228091          -1.819715          -0.970964           0.055879          -1.187185          -0.635123
hessian_block                4       6          -0.157546           0.147390           0.005982          -0.252769          -0.326630          -0.206751           0.264212          -0.178577          -0.069569
hessian_block                4       7          -1.884609          -0.605146           0.748413          -0.222096          -0.266000           0.213917           0.777524           0.288477          -0.358240
hessian_block                4       8          -0.257277          -0.008017          -0.091013           0.092146          -0.255550          -0.002459          -0.214344           0.095352           0.092897
hessian_block                4       9          -0.292813           0.608843           0.122673           0.095217          -2.241147          -1.012968           0.024052          -0.557469          -0.365389
hessian_block                4      10          -0.311935          -0.200243          -0.103562          -0.229095           0.352782           0.149805           0.041573           0.257045           0.211877
hessian_block                4      11          -1.956523          -0.338414           0.827041          -0.658000          -0.505536           0.190227           0.944039           0.056392          -0.555080
hessian_block                4      12          -0.154861           0.364252           0.030576           0.326743           0.148789           0.092043           0.033123           0.078836          -0.057984
hessian_block                5       5           5.345766          -0.489878          -1.297238          -0.489878           5.803801          -1.060609          -1.297238          -1.060609           7.601146
hessian_block                5       6           0.343584           0.015382          -0.293945           0.100852          -0.119745           0.400655          -0.106155          -0.449973           0.403510
hessian_block                5       7          -0.426491           0.810828          -0.032558          -0.894751           0.332330           0.360267           0.524726           0.216392          -1.133220
hessian_block                5       8           0.070891          -0.015607           0.346841           0.427826          -0.260403          -0.578542           0.461392           0.381986          -0.807229
hessian_block                5       9          -1.358549          -0.341721           1.741346          -0.322820          -1.638138           2.095065           1.931674           2.050104          -3.530370
hessian_block                5      10          -0.092126           0.255925           0.400377           0.269995           0.306804          -0.349888           0.361246          -0.051256          -0.710716
hessian_block                5      11           0.610157          -0.587457           0.110598           0.811403          -0.664269          -0.290644          -0.751118          -0.156744           1.161130
hessian_block                5      12           0.322290           0.261466          -0.495583          -0.371635          -0.283881           0.288621           0.032935          -0.547247           0.630856
hessian_block                6       6           5.175117           0.276218           1.651166           0.276218           5.630911           1.599954           1.651166           1.599954           8.177583
hessian_block                6       7           0.220019          -0.034106           0.048954           0.157362           0.087583           0.643829           0.382232           0.052040          -0.265097
hessian_block                6       8           0.101395           0.402191           0.145265           0.328071           0.229315           0.312788           0.099291          -0.176597          -0.663307
hessian_block                6       9           0.087952           0.181115           0.083750           0.026744           0.572624           0.014222           0.373561          -0.080422          -0.608586
hessian_block                6      10          -1.577913          -1.154594          -2.521397          -1.237525          -1.818835          -2.660599          -2.065294          -2.324387          -3.914648
hessian_block                6      11          -0.023966           0.211159          -0.193940          -0.006894           0.443302          -0.030080          -0.393914           0.190489           0.420373
hessian_block                6      12           0.442073           0.008666           0.062262          -0.152479          -0.133036           0.274950           0.178032           0.200096           0.675386
hessian_block                7       7           5.181027           0.636863           0.926743           0.636863           5.824964          -1.338594           0.926743          -1.338594           7.642939
hessian_block                7       8          -0.128883          -0.028458          -0.071769          -0.065966          -0.287517           0.718333           0.226205          -0.490400           0.927865
hessian_block                7       9           0.425201           0.590820          -0.201156          -0.536646          -0.667943          -0.271085           0.193586          -0.403201           1.279277
hessian_block                7      10           0.011455          -0.405091          -0.363663           0.178150          -0.468453          -0.106045          -0.402279          -0.789672           0.388119
hessian_block                7      11          -1.611122           0.305938          -1.487821           0.239252          -1.923944           2.245091          -1.491672           2.173363          -3.533499
hessian_block                7      12           0.155231          -0.053964           0.468637          -0.275292           0.354904          -0.449455          -0.377775           0.127088          -0.819397
hessian_block                8       8           4.722772          -0.019889          -0.942467          -0.019889           5.578135           1.358222          -0.942467           1.358222           7.114298
hessian_block                8       9           0.281657          -0.476160          -0.190585           0.224665           0.251286          -0.180399          -0.015526           0.429979           0.997069
hessian_block                8      10          -0.054890          -0.304746           0.128902          -0.437678          -0.225592           0.422899          -0.336454           0.016218           0.579419
hessian_block                8      11           0.323582          -0.063307          -0.115056           0.227910           0.686810           0.386954           0.251190          -0.688110          -0.915472
hessian_block                8      12          -0.787032           0.989932           1.724850           1.043632          -1.422312          -2.054935           1.474495          -1.784389          -3.082231
hessian_block                9       9           5.051204          -0.556424          -0.784479          -0.556424           6.168324          -1.353490          -0.784479          -1.353490           7.762745
hessian_block                9      10          -0.056369           0.416737          -0.246174          -0.295183          -0.022449           0.177118          -0.490792           0.006199           0.576856
hessian_block                9      11          -0.230197           0.709924           0.007441          -0.625911           0.799869           0.367990           0.422730           0.124039          -1.181861
hessian_block                9      12           0.135054          -0.274516           0.659290           0.187551          -0.332539          -0.441362          -0.057040           0.489698          -0.839059
hessian_block               10      10           5.425542           0.574711           1.535616           0.574711           6.219998           1.974677           1.535616           1.974677           7.915470
hessian_block               10      11           0.061805          -0.074729           0.339333           0.009671          -0.464494           0.287022           0.198678          -0.446667          -0.612135
hessian_block               10      12          -0.402978           0.052913          -0.034562          -0.292860          -0.367613          -0.177927          -0.207231          -0.144964          -0.477848
hessian_block               11      11           5.243144           0.760328           0.845396           0.760328           6.291896          -1.469351           0.845396          -1.469351           7.555070
hessian_block               11      12           0.049953          -0.074851          -0.483706           0.135149          -0.258653           0.570125           0.375828          -0.202697           0.613126
hessian_block               12      12           4.827138           0.018400          -0.958087           0.018400           5.448600           1.220154          -0.958087           1.220154           7.187377
hessian_block_lv             1       1          26.036353          -2.103045           5.153394          -2.103045          24.697711           2.419115           5.153394           2.419115           1.881259
hessian_block_lv_atom        1       1           0.068872           0.287355           0.022489          -0.440254          -0.529175          -0.181222          -0.238582          -0.267733          -0.061235
hessian_block_lv_atom        1       2          -0.646287          -0.947217          -0.228355          -0.091757          -0.555011          -0.057604           0.092876          -0.437599          -0.023755
hessian_block_lv_atom        1       3          -0.865814          -1.315235          -0.290329           0.403532           0.644123           0.126827          -0.392933          -0.717309          -0.107564
hessian_block_lv_atom        1       4          -0.232917          -0.238586          -0.065622           0.694402           0.534298           0.234781           0.270536           0.057784           0.030372
hessian_block_lv_atom        1       5           0.661336           0.812590           0.471034           0.231392           0.058156           0.245020          -1.830108          -2.495298          -1.344170
hessian_block_lv_atom        1       6           0.096815          -0.174323          -0.206015          -0.423728          -0.133245          -0.294224          -2.146899          -2.339144          -1.327151
hessian_block_lv_atom        1       7          -0.583775          -0.844271           0.073453          -0.943228          -1.007623          -0.506274           1.769989           2.724780           1.281400
hessian_block_lv_atom        1       8           0.221898           0.681735          -0.214318           0.098549           0.187782           0.247463           1.732970           2.294461           1.261312
hessian_block_lv_atom        1       9           0.076347           0.198695          -0.238391          -0.534095          -0.328869          -0.302567           2.166526           3.056955           1.402023
hessian_block_lv_atom        1      10          -0.127656           0.021720           0.247992           0.427131          -0.233747           0.341166           1.977350           2.510317           1.362009
hessian_block_lv_atom        1      11           0.728862           1.025418          -0.010661           0.634593           1.293782           0.389862          -1.680995          -2.340383          -1.311103
hessian_block_lv_atom        1      12           0.602319           0.492119           0.438723          -0.056537           0.069529          -0.243228          -1.720730          -2.046831          -1.162139
symmetry_n_params 39 3 36
symmetry_params a1 b2 c3 x0 x1 x2 x3 x4 x5 x6 x7 x8 x9 x10 x11 x12 x13 x14 x15 x16 x17 x18 x19 x20 x21 x22 x23 x24 x25 x26 x27 x28 x29 x30 x31 x32 x33 x34 x35
symmetry_lv a1 , 0 , 0 
symmetry_lv 0 , b2 , 0 
symmetry_lv 0 , 0 , c3
symmetry_frac x0 , x1 , x2
symmetry_frac x3 , x4 , x5
symmetry_frac x6 , x7 , x8
symmetry_frac x9 , x10 , x11
symmetry_frac x12 , x13 , x14
symmetry_frac x15 , x16 , x17
symmetry_frac x18 , x19 , x20
symmetry_frac x21 , x22 , x23
symmetry_frac x24 , x25 , x26
symmetry_frac x27 , x28 , x29
symmetry_frac x30 , x31 , x32
symmetry_frac x33 , x34 , x35
