# 
# This is the geometry file that corresponds to the current relaxation step.
# If you do not want this file to be written, set the "write_restart_geometry" flag to .false.
#  aims_uuid : 0C15966A-BB77-4AF2-AADB-6713D2BA0142                                
# 
lattice_vector      5.84797065      0.00000000      0.00000000
lattice_vector      0.00000000      5.95607946      0.00000000
lattice_vector      0.00000000      0.00000000      7.46279850
atom_frac       0.50183973      0.00127086      0.00127158 Pd
atom_frac       0.00121281      0.00122978      0.50174202 Pd
atom_frac       0.00121914      0.50181696      0.00118047 Pd
atom_frac       0.50179866      0.50178017      0.50183558 Pd
atom_frac       0.61357514      0.11926631      0.40377248 Se
atom_frac       0.89055585      0.88426433      0.90445758 Se
atom_frac       0.11305753      0.38381356      0.59984530 Se
atom_frac       0.39016299      0.61988501      0.09925214 Se
atom_frac       0.39007499      0.88433189      0.59984315 Se
atom_frac       0.11300493      0.11926816      0.09923473 Se
atom_frac       0.89060179      0.61990452      0.40378172 Se
atom_frac       0.61353101      0.38380303      0.90441784 Se
# 
# What follows is the current estimated Hessian matrix constructed by the BFGS algorithm.
# This is NOT the true Hessian matrix of the system.
# If you do not want this information here, switch it off using the "hessian_to_restart_geometry" keyword.
# 
trust_radius             0.0122154887
hessian_block                1       1           6.316380          -0.641402          -2.381357          -0.641402           7.395812          -0.909122          -2.381357          -0.909122           4.821009
hessian_block                1       2          -0.951559           2.026126           0.430268          -0.653198           2.107926           0.316548          -0.791384           1.554601           0.384997
hessian_block                1       3          -1.420043           2.973900           0.622285           0.213846          -0.781305          -0.123912          -1.005905           1.575396           0.387579
hessian_block                1       4           0.342213           0.586630           0.044948           0.092714          -0.190324          -0.095511          -0.005403           0.208107           0.028517
hessian_block                1       5           0.462844          -1.366735          -0.404722          -1.272804           1.479708           0.518418          -0.195246           0.144413           0.358060
hessian_block                1       6          -0.599972          -1.643102           0.392226           1.564963          -2.239381          -0.486001           3.499972          -4.003157          -1.112522
hessian_block                1       7          -0.816300           0.890980           0.332950           0.426747          -0.167124           0.059761           0.372619          -0.728476          -0.320882
hessian_block                1       8           0.676604          -2.312608          -0.151539          -0.070214          -2.525274           0.645938          -0.630660           1.735389          -0.380630
hessian_block                1       9          -0.001996          -0.266539           0.088176           0.468440          -1.601065          -0.328779           0.068417          -0.579842          -0.268383
hessian_block                1      10          -3.613231           2.920050           1.398434          -1.389461           2.312621           0.184118          -0.670402           2.048708          -0.266212
hessian_block                1      11           0.969515          -1.878011          -0.500463           0.933752          -1.614054          -0.467944           0.038135           0.387513           0.382944
hessian_block                1      12           0.201454          -1.289289           0.128793           0.326619          -2.530519           0.686489           1.701219          -1.433530          -0.912613
hessian_block                2       2           8.231412           2.696776           4.203763           2.696776           9.140386           3.558919           4.203763           3.558919           6.427382
hessian_block                2       3           4.147492           4.125881           3.152759          -1.206803          -1.114379          -0.773576           2.152386           2.085620           1.739846
hessian_block                2       4           0.628904           0.916180           0.384152          -0.402369           0.115352           0.041572           0.263001           0.485222           0.269558
hessian_block                2       5          -3.354629          -1.162657          -2.020658           2.377029           1.748127           1.926600          -0.697125          -0.033157          -0.747572
hessian_block                2       6          -3.013686          -3.017672          -2.460878          -2.790125          -3.366070          -2.673340          -5.265756          -5.480140          -4.795002
hessian_block                2       7           0.988287           0.623039           0.768215          -1.009583          -2.300047          -1.369704          -1.190980          -1.813788          -1.022173
hessian_block                2       8          -2.411442          -2.671580          -1.922882          -0.639059          -0.875004          -0.704508           1.363145           1.413929           1.445773
hessian_block                2       9          -2.362488          -0.028968          -1.202496          -1.213554          -2.681828          -1.451941          -1.625871          -0.365662          -0.664556
hessian_block                2      10           3.467308           3.193725           2.870011           3.640676           3.995279           3.428891           3.416077           3.741113           3.321838
hessian_block                2      11          -2.575384          -3.049344          -2.140033          -2.436581          -4.364067          -2.705831           0.048815          -0.703510          -0.586381
hessian_block                2      12          -1.228304          -0.972185          -0.840569          -1.042535          -0.758648          -0.831682          -3.097727          -3.205095          -2.671845
hessian_block                3       3          11.388993          -1.600174           5.304475          -1.600174           6.486402          -1.943896           5.304475          -1.943896           6.582324
hessian_block                3       4           0.894439          -0.373681           0.296981          -0.396918           0.289357          -0.151395           0.421041          -0.131285           0.197079
hessian_block                3       5          -2.414669           0.558849          -1.433515           2.833861          -0.399553           1.951867           0.115595           0.065591           0.272810
hessian_block                3       6          -4.615787           1.542757          -2.719558          -3.777402          -0.927335          -1.424069          -8.233248           2.505623          -5.023159
hessian_block                3       7           1.720308          -0.339707           1.183931          -0.733624           0.170456          -0.337859          -1.456744           0.273285          -0.905549
hessian_block                3       8          -5.328613           0.391280          -2.735963          -1.648954          -0.193772          -1.079149           1.206582          -0.733296           0.712742
hessian_block                3       9          -0.802787           0.443311          -0.159457          -2.739100           0.540677          -1.598944          -1.113380           0.396112          -0.535969
hessian_block                3      10           5.016522          -0.593134           2.808592           6.093291          -3.111706           4.047522           4.969576          -0.324156           2.330971
hessian_block                3      11          -3.558072           0.923522          -2.044422          -3.072386           0.512118          -1.941261           0.403977          -0.003912           0.368743
hessian_block                3      12          -3.461873           0.039934          -1.647546          -2.058378           0.176062          -1.183831          -5.392921           0.793426          -3.025555
hessian_block                4       4           5.958890          -0.000091          -1.975751          -0.000091           6.374387           1.358045          -1.975751           1.358045           4.852027
hessian_block                4       5          -0.715557           0.711479           0.148616           0.537614          -1.808302          -0.741093           0.033118          -1.204798          -0.661353
hessian_block                4       6          -0.557809           0.126649          -0.296992          -0.654537          -0.351234          -0.522018          -0.500380          -0.206208          -0.684707
hessian_block                4       7          -1.700998          -0.592920           0.883132          -0.287485          -0.266460           0.141106           0.675172           0.298739          -0.422813
hessian_block                4       8          -0.544196           0.012539          -0.321928          -0.033728          -0.263009          -0.085315           0.030700           0.113317           0.270199
hessian_block                4       9          -0.319108           0.630273           0.095098          -0.209979          -2.265363          -1.224081          -0.017573          -0.543007          -0.385448
hessian_block                4      10           0.150354          -0.182234           0.265390           0.279774           0.364399           0.565152           0.526604           0.288152           0.615791
hessian_block                4      11          -2.286239          -0.341410           0.591203          -0.954306          -0.508062          -0.025368           0.947369           0.038876          -0.569715
hessian_block                4      12          -0.284985           0.342289          -0.067406           0.193610           0.156285          -0.028472          -0.445344           0.062218          -0.407271
hessian_block                5       5           6.012968          -1.604418          -1.256296          -1.604418           7.608034          -1.181810          -1.256296          -1.181810           7.632013
hessian_block                5       6           1.740734          -2.265959          -0.157763           1.508884          -2.439290           0.554840           2.831168          -5.158860           0.794925
hessian_block                5       7          -1.023602           1.795258          -0.069070          -0.491996          -0.241898           0.452956           0.894541          -0.346740          -1.130235
hessian_block                5       8           1.373568          -1.967361           0.521953           0.779140          -0.887030          -0.562479          -0.375841           1.773776          -0.907661
hessian_block                5       9          -1.114611          -0.660010           1.789936           0.644060          -3.264157           2.173346           2.088342           1.842668          -3.557839
hessian_block                5      10          -1.843781           3.051525           0.192007          -1.742841           3.485307          -0.609101          -1.464326           2.920752          -0.968910
hessian_block                5      11           1.769756          -2.454937           0.202259           1.879975          -2.376091          -0.195304          -0.772043          -0.158421           1.190197
hessian_block                5      12           0.672890          -0.369800          -0.479371           0.286257          -1.257832           0.395504           1.764733          -3.347158           0.827431
hessian_block                6       6           8.068656           3.226742           7.672906           3.226742           8.657658           7.789515           7.672906           7.789515          20.612588
hessian_block                6       7          -1.027557          -1.299147          -2.559912           0.928203           0.899159           2.157982           1.104904           0.768845           1.143708
hessian_block                6       8           2.640556           3.002226           5.150233           1.093621           0.998354           1.963806          -1.630251          -1.930180          -4.285628
hessian_block                6       9           0.523886           0.636249           0.859794           2.043517           2.602515           4.257138           0.654416           0.186979          -0.127285
hessian_block                6      10          -5.163572          -4.832695          -9.908669          -5.333146          -6.031495         -11.050509          -5.867856          -6.254832         -11.870624
hessian_block                6      11           2.339975           2.602421           4.649563           2.165532           2.644892           4.410094          -0.391738           0.217138           0.522154
hessian_block                6      12           1.230486           0.812421           1.804332           1.132858           1.199250           2.814717           3.700590           3.773126           7.927421
hessian_block                7       7           5.719994           0.285537           0.596804           0.285537           5.975208          -1.195829           0.596804          -1.195829           7.860347
hessian_block                7       8          -1.272233           0.467019           0.531095          -0.380908          -0.057248           0.927678           0.956376          -0.946862           0.509495
hessian_block                7       9           0.214770           0.613490          -0.107883          -1.389016          -0.107945           0.250879           0.048870          -0.375561           1.393941
hessian_block                7      10           1.574098          -1.315005          -1.223873           1.971786          -1.472106          -1.071621           1.230583          -1.809791          -0.479714
hessian_block                7      11          -2.640792           0.886901          -0.870368          -0.708396          -1.397548           2.802181          -1.477227           2.231803          -3.570605
hessian_block                7      12          -0.170061           0.229795           0.674716          -0.856505           0.612577          -0.165155          -1.894652           0.991998           0.046345
hessian_block                8       8           6.602510           0.741665          -2.462411           0.741665           5.773127           0.884039          -2.462411           0.884039           8.205133
hessian_block                8       9           0.492076          -0.312478          -0.449361           2.081981           0.781723          -1.431123           0.204587           0.516070           0.861334
hessian_block                8      10          -3.060250          -1.273544           2.258570          -3.786437          -1.351049           2.852451          -3.561955          -0.994276           2.850595
hessian_block                8      11           2.367252           0.586618          -1.535702           2.077471           1.288686          -0.920985           0.285903          -0.713512          -0.915723
hessian_block                8      12           0.030078           1.157842           1.268852           1.963806          -1.042478          -2.810456           4.462909          -0.798292          -5.263766
hessian_block                9       9           5.036364          -0.214075          -0.755393          -0.214075           7.600457          -1.152861          -0.755393          -1.152861           7.848035
hessian_block                9      10          -0.527422          -2.091236          -0.564127          -0.794375          -2.898708          -0.170182          -1.016154          -2.625960           0.293450
hessian_block                9      11           0.111425           2.389478           0.263830          -0.325716           2.348204           0.592595           0.438616           0.094549          -1.222744
hessian_block                9      12           0.315803           0.229484           0.747881           0.278837           0.592516          -0.347309           0.419124           3.037779          -0.532669
hessian_block               10      10           9.833648           5.583294           6.252674           5.583294          11.894457           7.358230           6.252674           7.358230          13.023884
hessian_block               10      11          -2.830100          -3.361880          -2.695934          -2.640271          -3.471300          -2.505818           0.152700          -0.517689          -0.704484
hessian_block               10      12          -1.437666          -1.160684          -1.118886          -1.820476          -2.068673          -1.842120          -4.501712          -5.017264          -5.044722
hessian_block               11      11           7.200754           2.550713           0.813684           2.550713           7.927597          -1.487778           0.813684          -1.487778           7.597397
hessian_block               11      12           0.697818           0.530213          -0.488194           1.145929           0.656650           0.614942           3.266384           2.445422           0.610082
hessian_block               12      12           5.000274           0.449980           0.017400           0.449980           5.911831           2.697371           0.017400           2.697371          11.549028
hessian_block_lv             1       1          26.388055          -2.070214           5.689696          -2.070214          24.351909           2.683034           5.689696           2.683034           2.359383
hessian_block_lv_atom        1       1          -0.242942           0.379161          -0.396637          -0.037336          -1.150802           0.389620          -0.238260          -0.723538           0.013034
hessian_block_lv_atom        1       2          -0.030016          -1.411023           0.634910           0.563620          -1.110640           0.863537           0.756193          -0.388106           0.815726
hessian_block_lv_atom        1       3           0.073661          -1.986743           0.999414           0.180799           0.712958          -0.184648           0.136704          -1.175180           0.648015
hessian_block_lv_atom        1       4          -0.130667          -0.200476           0.075379           0.736373           0.680135           0.297219           0.367050           0.058407           0.137513
hessian_block_lv_atom        1       5           0.364861           1.380674           0.042617           0.823305          -0.358549           1.061970          -1.930329          -2.488009          -1.496340
hessian_block_lv_atom        1       6          -0.609791           0.619800          -1.173874          -1.176258           0.700865          -1.280789          -3.838232          -1.538379          -3.574702
hessian_block_lv_atom        1       7          -0.327983          -1.376466           0.424523          -1.240155          -1.281687          -0.878240           1.670782           2.997044           1.142636
hessian_block_lv_atom        1       8          -0.488178           0.592331          -1.152729          -0.056038           0.582230           0.017221           2.216252           2.052143           1.992879
hessian_block_lv_atom        1       9          -0.072611          -0.045692          -0.414388          -1.012804           0.284527          -1.012068           2.201980           3.296394           1.453621
hessian_block_lv_atom        1      10           0.819753          -0.638797           1.494941           1.546771          -0.794440           1.797833           3.071878           1.867083           2.797014
hessian_block_lv_atom        1      11           0.197146           1.653956          -0.766173           0.122108           1.780104          -0.331718          -1.750695          -2.370751          -1.406018
hessian_block_lv_atom        1      12           0.446766           1.033274           0.232017          -0.450385          -0.044702          -0.739939          -2.663323          -1.587110          -2.523380
symmetry_n_params 39 3 36
symmetry_params a1 b2 c3 x0 x1 x2 x3 x4 x5 x6 x7 x8 x9 x10 x11 x12 x13 x14 x15 x16 x17 x18 x19 x20 x21 x22 x23 x24 x25 x26 x27 x28 x29 x30 x31 x32 x33 x34 x35
symmetry_lv a1 , 0 , 0 
symmetry_lv 0 , b2 , 0 
symmetry_lv 0 , 0 , c3
symmetry_frac x0 , x1 , x2
symmetry_frac x3 , x4 , x5
symmetry_frac x6 , x7 , x8
symmetry_frac x9 , x10 , x11
symmetry_frac x12 , x13 , x14
symmetry_frac x15 , x16 , x17
symmetry_frac x18 , x19 , x20
symmetry_frac x21 , x22 , x23
symmetry_frac x24 , x25 , x26
symmetry_frac x27 , x28 , x29
symmetry_frac x30 , x31 , x32
symmetry_frac x33 , x34 , x35
