# 
# This is the geometry file that corresponds to the current relaxation step.
# If you do not want this file to be written, set the "write_restart_geometry" flag to .false.
#  aims_uuid : 0C4EF849-BA2C-4E73-ADA9-E753A0668176                                
# 
lattice_vector      5.83787781      0.00000000      0.00000000
lattice_vector      0.00000000      5.95117711      0.00000000
lattice_vector      0.00000000      0.00000000      7.54726954
atom_frac       0.50172274      0.00174046      0.00179504 Pd
atom_frac       0.00166134      0.00172807      0.50159714 Pd
atom_frac       0.00177315      0.50170849      0.00169874 Pd
atom_frac       0.50174626      0.50181123      0.50166665 Pd
atom_frac       0.61369708      0.12016978      0.40525743 Se
atom_frac       0.88961454      0.88328161      0.90539784 Se
atom_frac       0.11389469      0.38316742      0.59810696 Se
atom_frac       0.38968921      0.62021984      0.09819135 Se
atom_frac       0.38959690      0.88328383      0.59812991 Se
atom_frac       0.11376319      0.12013415      0.09817191 Se
atom_frac       0.88972716      0.62013184      0.40525170 Se
atom_frac       0.61374832      0.38325787      0.90536993 Se
# 
# What follows is the current estimated Hessian matrix constructed by the BFGS algorithm.
# This is NOT the true Hessian matrix of the system.
# If you do not want this information here, switch it off using the "hessian_to_restart_geometry" keyword.
# 
trust_radius             0.0977239096
hessian_block                1       1           5.957207          -0.021257          -2.146363          -0.021257           6.339902          -1.299046          -2.146363          -1.299046           4.699466
hessian_block                1       2          -0.100477           0.571997          -0.098652           0.251118           0.562017          -0.261221          -0.129148           0.413346          -0.041372
hessian_block                1       3          -0.170896           0.823831          -0.191770          -0.078033          -0.276266           0.067256          -0.182131           0.169134          -0.117905
hessian_block                1       4           0.497773           0.323972          -0.041402           0.095131          -0.201448          -0.119006           0.024321           0.155293           0.006190
hessian_block                1       5           0.029646          -0.576032          -0.081078          -0.458714           0.142542           0.061708          -0.129577           0.064319           0.354850
hessian_block                1       6          -1.689993           0.153921           1.000264           0.520571          -0.516512           0.106789           1.602399          -0.752244           0.039185
hessian_block                1       7          -0.337566           0.119124           0.046677           0.182753           0.225113           0.209995          -0.056263          -0.032034          -0.092124
hessian_block                1       8          -0.251003          -0.780773           0.369774          -0.309201          -2.077899           0.825988          -0.140339           0.867838          -0.705703
hessian_block                1       9          -0.200117           0.023428           0.167026          -0.300933          -0.350093           0.089840          -0.196964          -0.154028          -0.129236
hessian_block                1      10          -2.316363           0.762685           0.655002          -0.019176           0.014511          -0.640666           0.528379          -0.015652          -1.009085
hessian_block                1      11           0.111586          -0.464131          -0.000786           0.231950          -0.371903           0.020594           0.188498           0.178448           0.356983
hessian_block                1      12           0.036112          -0.936765           0.321306          -0.094207          -1.842943           0.937770           0.637194           0.404628          -0.259385
hessian_block                2       2           6.239545           0.568847           2.642028           0.568847           6.880223           1.896865           2.642028           1.896865           5.218511
hessian_block                2       3           1.191325           0.986881           0.847558          -0.514811          -0.377673          -0.235456           0.230837           0.027465           0.236289
hessian_block                2       4           0.274480           0.531928           0.108031          -0.426125           0.102434           0.030655           0.189785           0.409537           0.213332
hessian_block                2       5          -2.286061          -0.024188          -1.207940           0.525985          -0.223098           0.462501          -0.820028          -0.170573          -0.887644
hessian_block                2       6          -0.534391          -0.367916          -0.493651          -0.407259          -0.828491          -0.788380          -0.854098          -0.741348          -1.382820
hessian_block                2       7          -0.111118          -0.520876          -0.108286          -0.446635          -1.717972          -0.922295          -0.220168          -0.774264          -0.219771
hessian_block                2       8          -0.299501          -0.415474          -0.255371          -0.044315          -0.233313          -0.251012           0.198975           0.163065           0.574470
hessian_block                2       9          -1.945716           0.412275          -0.855097           0.522326          -0.832908          -0.073569          -1.025217           0.276817          -0.151980
hessian_block                2      10           0.497769           0.021241           0.526232           0.468380           0.623377           0.937930           0.617059           0.739286           1.173328
hessian_block                2      11          -0.607532          -0.964031          -0.579501          -0.743369          -2.563846          -1.403164          -0.244038          -1.033167          -0.863082
hessian_block                2      12          -0.752411          -0.479809          -0.494855          -0.075023           0.256277          -0.067419          -0.616487          -0.532463          -0.767395
hessian_block                3       3           7.048257          -0.583928           2.440397          -0.583928           6.249116          -1.273816           2.440397          -1.273816           4.733193
hessian_block                3       4           0.352681          -0.247429          -0.038050          -0.405687           0.292316          -0.182031           0.318005          -0.107458           0.125891
hessian_block                3       5          -0.889586           0.210620          -0.392927           0.027350           0.267437           0.180815          -0.092734           0.120032           0.145588
hessian_block                3       6          -0.854756           0.651336          -0.346387          -0.175207          -1.781908           0.858481          -1.618421           0.965392          -0.814760
hessian_block                3       7           0.084379           0.056614           0.114798           0.099410          -0.032545           0.212260           0.011451          -0.077317           0.038625
hessian_block                3       8          -2.124846          -0.367792          -0.716974          -0.802513          -0.383587          -0.500635          -0.519366          -0.336604          -0.393535
hessian_block                3       9          -0.135328           0.277518           0.235938          -0.091567          -0.090914           0.059376          -0.210964           0.178803           0.057849
hessian_block                3      10           0.533373           0.465796          -0.035245           1.352909          -1.992462           0.996076           0.784541           0.648758          -0.336676
hessian_block                3      11          -0.603323           0.219853          -0.148146          -0.618526          -0.055474          -0.298629          -0.096217           0.119394           0.091687
hessian_block                3      12          -2.865368          -0.089743          -1.162110          -0.612954          -0.171019          -0.248495          -1.672483          -0.068981          -0.664383
hessian_block                4       4           5.904078          -0.013067          -1.990636          -0.013067           6.389378           1.360846          -1.990636           1.360846           4.849409
hessian_block                4       5          -0.507606           0.696881           0.180642           0.231876          -1.854035          -0.816337           0.003246          -1.218209          -0.670483
hessian_block                4       6          -0.145793           0.191642          -0.195694          -0.255813          -0.297456          -0.425752           0.230863          -0.114778          -0.515238
hessian_block                4       7          -1.899525          -0.597793           0.842408          -0.184210          -0.266709           0.160662           0.853844           0.321865          -0.382569
hessian_block                4       8          -0.197018           0.068049          -0.236329           0.084036          -0.269991          -0.067050          -0.158568           0.096285           0.229434
hessian_block                4       9          -0.259438           0.655208           0.116056           0.071679          -2.215446          -1.151886           0.103516          -0.531822          -0.361057
hessian_block                4      10          -0.347694          -0.250239           0.146441          -0.269295           0.318348           0.444353           0.064797           0.236351           0.510204
hessian_block                4      11          -1.945644          -0.308740           0.667588          -0.636412          -0.516453           0.030087           0.904637           0.002869          -0.590197
hessian_block                4      12          -0.160387           0.294740          -0.062587           0.362736           0.166088           0.007704          -0.040282           0.116975          -0.313053
hessian_block                5       5           5.622157          -0.406329          -1.100994          -0.406329           6.137834          -1.231323          -1.100994          -1.231323           7.746690
hessian_block                5       6           0.165146          -0.250535          -0.095944          -0.002675          -0.507221           0.624431           0.436274          -1.141689           1.216542
hessian_block                5       7          -0.274901           0.968196          -0.050295          -0.878199           0.175674           0.440707           0.266507           0.464430          -1.192108
hessian_block                5       8           0.034387          -0.256386           0.595033           0.602967          -0.164072          -0.464739           0.172316           0.638095          -1.104048
hessian_block                5       9          -1.513632          -0.475574           1.733079          -0.527658          -1.941127           2.198511           1.696625           2.358270          -3.641834
hessian_block                5      10          -0.025006           0.564233           0.075020           0.125274           0.750351          -0.761952           0.026281           0.354120          -1.279442
hessian_block                5      11           0.527425          -0.849727           0.237560           1.125741          -0.634876          -0.009103          -0.458408          -0.286036           1.300881
hessian_block                5      12           0.683941           0.379624          -0.354370          -0.346405          -0.502386           0.407898           0.462700          -1.044553           1.112875
hessian_block                6       6           5.322369           0.586666           2.273211           0.586666           6.125560           2.592692           2.273211           2.592692          11.273205
hessian_block                6       7           0.126792          -0.208694          -0.039282           0.342025           0.348653           0.856997           0.015541          -0.285323          -1.143138
hessian_block                6       8           0.304714           0.759355           0.590451           0.156141           0.092461           0.626983          -0.109775          -0.471070          -1.914447
hessian_block                6       9           0.243254           0.368901          -0.047652           0.219494           0.854106           0.501686          -0.030411          -0.477779          -1.640776
hessian_block                6      10          -1.785098          -1.586287          -3.450504          -1.622419          -2.477204          -4.078400          -2.414040          -2.936037          -5.993897
hessian_block                6      11           0.145309           0.503704           0.276188          -0.147248           0.428306           0.632385          -0.216190           0.402284           1.226996
hessian_block                6      12           0.268357          -0.103261           0.600574           0.086892           0.206728           0.652325           0.613082           0.799664           2.751013
hessian_block                7       7           5.341675           0.466553           1.022410           0.466553           5.889393          -1.409952           1.022410          -1.409952           7.512185
hessian_block                7       8          -0.284121          -0.035546          -0.415238           0.092608          -0.303707           0.559458           0.201760          -0.553536           1.202352
hessian_block                7       9           0.274427           0.587557          -0.208987          -0.656080          -0.477090          -0.483440           0.295654          -0.498520           1.220260
hessian_block                7      10           0.129575          -0.580271           0.129537           0.407732          -0.679921           0.406078          -0.390365          -0.973194           1.013033
hessian_block                7      11          -1.768820           0.449467          -1.719128           0.346245          -1.937859           1.882339          -1.526072           2.255998          -3.562815
hessian_block                7      12           0.285118          -0.002905           0.320498          -0.473628           0.423994          -0.571842          -0.409406           0.220879          -1.292065
hessian_block                8       8           4.619988          -0.056389          -1.189468          -0.056389           5.713422           1.172828          -1.189468           1.172828           7.667707
hessian_block                8       9           0.250829          -0.579004          -0.128847           0.533305           0.065677          -0.348059          -0.401224           0.289112           1.344194
hessian_block                8      10          -0.190148          -0.203216           0.477253          -0.632788          -0.256928           0.953486          -0.652775          -0.163693           1.387678
hessian_block                8      11           0.496114          -0.160720          -0.292477           0.111664           0.899118           0.002983           0.450091          -0.516019          -1.198124
hessian_block                8      12          -0.793485           1.219607           1.488534           1.072776          -1.434156          -2.185312           1.862028          -1.511221          -3.988116
hessian_block                9       9           5.121563          -0.340468          -0.815101          -0.340468           6.424702          -1.620629          -0.815101          -1.620629           7.791601
hessian_block                9      10          -0.125724           0.179927           0.292486          -0.301644          -0.379842           0.757081          -0.415313          -0.219856           1.295609
hessian_block                9      11          -0.110071           0.934229          -0.255606          -0.824862           0.675126           0.019231           0.357426           0.174529          -1.247755
hessian_block                9      12          -0.034135          -0.544255           0.547203           0.196663          -0.085165          -0.596537          -0.138528           0.873497          -1.435009
hessian_block               10      10           5.706909           1.079738           2.135953           1.079738           7.034246           2.925927           2.135953           2.925927           9.341887
hessian_block               10      11          -0.131233          -0.427138           0.102494           0.071799          -0.644063          -0.136710          -0.122497          -0.883837          -1.197900
hessian_block               10      12          -0.380453          -0.161574          -0.387010          -0.525405          -0.663385          -0.459297          -0.829679          -1.056077          -1.802874
hessian_block               11      11           5.478385           0.729168           0.963941           0.729168           6.621085          -1.097023           0.963941          -1.097023           7.731940
hessian_block               11      12          -0.026289           0.353850          -0.201174           0.338066          -0.252137           0.682560           0.747873           0.357013           1.053252
hessian_block               12      12           5.304914           0.070491          -0.616010           0.070491           5.545123           1.440642          -0.616010           1.440642           8.707005
hessian_block_lv             1       1          25.632754          -1.366600           5.011043          -1.366600          23.929121           3.179266           5.011043           3.179266           2.015714
hessian_block_lv_atom        1       1           0.267480          -0.076973          -0.034583          -0.954589          -0.368806          -0.224223          -0.629695          -0.429331          -0.176031
hessian_block_lv_atom        1       2          -1.290443          -0.342846          -0.183151          -0.770891           0.019411          -0.052837          -0.201385           0.409981           0.158278
hessian_block_lv_atom        1       3          -1.722279          -0.394615          -0.269854           0.599825           0.340837           0.111635          -1.108318          -0.164076          -0.141063
hessian_block_lv_atom        1       4          -0.379083          -0.033089          -0.056138           0.752230           0.693100           0.243755           0.338240           0.097739           0.109445
hessian_block_lv_atom        1       5           0.869745           0.781660           0.487589          -0.530714           0.554918           0.278053          -2.070448          -2.327045          -1.497675
hessian_block_lv_atom        1       6           1.182367          -0.636494          -0.158787           0.528423          -0.493172          -0.283737          -0.971770          -3.693843          -1.807938
hessian_block_lv_atom        1       7          -1.141045          -0.810784          -0.120515          -0.814366          -1.569472          -0.577090           2.363206           2.397806           1.508197
hessian_block_lv_atom        1       8           1.046997          -0.451104          -0.272700           0.183750           0.226216           0.228738           1.511987           2.572470           1.498422
hessian_block_lv_atom        1       9           0.352356          -0.236609          -0.225650           0.305500          -0.561400          -0.273403           2.627053           2.868141           1.673524
hessian_block_lv_atom        1      10          -1.260578           0.863632           0.278666          -0.593904           0.826067           0.443484           1.276217           3.198397           1.650885
hessian_block_lv_atom        1      11           1.597779           0.639681           0.095339           1.038938           0.859823           0.383195          -2.067331          -2.158328          -1.444384
hessian_block_lv_atom        1      12           0.476701           0.697539           0.459784           0.255798          -0.527521          -0.277572          -1.067755          -2.771915          -1.531661
