# 
# This is the geometry file that corresponds to the current relaxation step.
# If you do not want this file to be written, set the "write_restart_geometry" flag to .false.
#  aims_uuid : 130A5A14-E19E-4488-A615-D082CD2AF4EB                                
# 
lattice_vector      3.78036804      0.00000000      0.00000000
lattice_vector     -1.89018402      3.27389476      0.00000000
lattice_vector      0.00000000      0.00000000      4.95307324
atom_frac      -0.00033433     -0.00033759     -0.00024778 Pt
atom_frac       0.33322000      0.66619860      0.25929963 Se
atom_frac       0.66633036      0.33335502      0.74016417 Se
# 
# What follows is the current estimated Hessian matrix constructed by the BFGS algorithm.
# This is NOT the true Hessian matrix of the system.
# If you do not want this information here, switch it off using the "hessian_to_restart_geometry" keyword.
# 
trust_radius             0.1000000015
hessian_block                1       1           9.321691          -0.042476           0.623449          -0.042476           7.198857          -0.464988           0.623449          -0.464988          24.216302
hessian_block                1       2          -3.548399          -0.351288          -0.510971          -0.109200          -2.448945           0.731759           0.320972           0.563043         -10.262750
hessian_block                1       3          -3.910209          -0.537777          -0.112478          -0.779866          -2.886829          -0.266772          -0.944421          -0.098055         -10.880542
hessian_block                2       2           5.330477          -1.270249           0.751780          -1.270249           5.568537          -1.438267           0.751780          -1.438267          15.150127
hessian_block                2       3           0.081005           0.447907          -1.072752           0.689995          -1.256510           0.875225          -0.240809           0.706508          -1.814366
hessian_block                3       3           5.692287          -0.841671           1.185230          -0.841671           6.006422          -0.608453           1.185230          -0.608453          15.767919
hessian_block_lv             1       1          35.402860           5.688584           0.000000           5.688584           1.996226           0.000000           0.000000           0.000000           0.000000
hessian_block_lv_atom        1       1           0.514722           0.323100           0.000000           0.271412           0.193597           0.000000           0.416023           0.110108           0.000000
hessian_block_lv_atom        1       2           1.532804           0.219697           0.000000           2.003059           0.121339           0.000000           2.897730           2.553427           0.000000
hessian_block_lv_atom        1       3          -2.047526          -0.542797           0.000000          -2.274471          -0.314936           0.000000          -3.313752          -2.663535           0.000000
