# 
# This is the geometry file that corresponds to the current relaxation step.
# If you do not want this file to be written, set the "write_restart_geometry" flag to .false.
#  aims_uuid : 65BCD543-4986-449E-AE19-85700F38290D                                
# 
lattice_vector      3.28773818      0.00000000      0.00000000
lattice_vector     -1.64386909      2.84726479      0.00000000
lattice_vector      0.00000000      0.00000000     13.26454657
atom_frac       0.32862949      0.66457333      0.25178676 W
atom_frac       0.67505127      0.33915862      0.75194076 W
atom_frac       0.34169685      0.67235624      0.87916849 Se
atom_frac       0.66201244      0.33133570      0.37904616 Se
atom_frac       0.66201645      0.33133462      0.12449061 Se
atom_frac       0.34170406      0.67235206      0.62467778 Se
# 
# What follows is the current estimated Hessian matrix constructed by the BFGS algorithm.
# This is NOT the true Hessian matrix of the system.
# If you do not want this information here, switch it off using the "hessian_to_restart_geometry" keyword.
# 
trust_radius             0.0110920436
hessian_block                1       1         489.865912         168.211187           5.925208         168.211187          66.289197           1.491283           5.925208           1.491283         193.343634
hessian_block                1       2        -487.046830        -168.584895          -6.516655        -170.059827         -64.922745          -0.891976          23.605420           6.417928         -14.444012
hessian_block                1       3           2.236926          -1.137034           0.809908           4.916980           4.098459          -0.485336          20.520192           6.406434          13.627397
hessian_block                1       4          -3.197302           1.110255          -0.500770          -4.214905          -4.345845           0.186066          25.108889           5.921893         -84.528306
hessian_block                1       5          -3.203887           1.104942          -0.490370          -4.221948          -4.348421           0.155179         -37.690907          -8.562536         -94.454041
hessian_block                1       6           2.204413          -1.134071           0.772679           4.938896           4.088587          -0.455216         -37.468801         -11.675002           0.903319
hessian_block                2       2         488.259589         168.369231         -23.026157         168.369231          67.571581          -6.905191         -23.026157          -6.905191         189.311548
hessian_block                2       3          -2.933129           1.549534           0.246212          -4.457274          -4.822163          -0.308314         -20.924215          -6.076862         -84.411133
hessian_block                2       4           2.732022          -0.915919          -0.596647           4.362657           3.916741           0.614912         -23.304438          -7.567657          13.616533
hessian_block                2       5           2.740874          -0.912603          -0.536536           4.367276           3.921429           0.537098          36.343191           9.738324           3.349477
hessian_block                2       6          -2.893293           1.539968           0.307708          -4.486612          -4.805610          -0.356434          37.428274          11.703362         -92.974422
hessian_block                3       3           2.388369          -1.392263           0.412430          -1.392263           2.510209          -0.264203           0.412430          -0.264203         106.384799
hessian_block                3       4          -0.903442           0.591403          -0.097686           0.614215          -1.009292           0.006242           0.387086           0.109423          -7.359321
hessian_block                3       5          -0.902956           0.591311          -0.218185           0.615234          -1.010716           0.113881          -1.493777           0.691124          -8.040491
hessian_block                3       6           0.973465          -0.679773           0.307464          -0.679302           1.092736          -0.185491          -0.361860           0.257306          -5.753261
hessian_block                4       4           2.268482          -1.252810          -1.382441          -1.252810           2.353763           0.788761          -1.382441           0.788761         119.967523
hessian_block                4       5           0.859361          -0.547872          -1.332171          -0.548747           0.946683           0.760105           2.242107          -1.355919         -18.938156
hessian_block                4       6          -0.899888           0.609099           0.523075           0.586202          -1.002818          -0.012525           0.335437          -0.240062          -8.310283
hessian_block                5       5           2.264679          -1.251125           2.192112          -1.251125           2.353980          -1.300733           2.192112          -1.300733         125.521351
hessian_block                5       6          -0.898839           0.609694          -1.592726           0.585732          -1.003724           0.789739           0.385151          -0.265530           7.009851
hessian_block                6       6           2.373374          -1.374533          -0.318201          -1.374533           2.490061           0.219927          -0.318201           0.219927         113.572786
hessian_block_lv             1       1          50.431636           3.376289           0.000000           3.376289           1.180680           0.000000           0.000000           0.000000           0.000000
hessian_block_lv_atom        1       1           4.953437           4.372442           0.000000           3.397782           0.763364           0.000000           4.766646           2.756296           0.000000
hessian_block_lv_atom        1       2          -4.767268          -4.233184           0.000000          -3.557480          -0.889476           0.000000          -2.395381           2.006692           0.000000
hessian_block_lv_atom        1       3          -0.596294           0.221442           0.000000           0.985083          -0.135338           0.000000          14.464819           3.232444           0.000000
hessian_block_lv_atom        1       4           0.498933          -0.293636           0.000000          -0.908801           0.200918           0.000000          16.142083           6.541357           0.000000
hessian_block_lv_atom        1       5           0.493211          -0.293299           0.000000          -0.895352           0.200426           0.000000         -17.512931          -8.423089           0.000000
hessian_block_lv_atom        1       6          -0.582019           0.226234           0.000000           0.978768          -0.139895           0.000000         -15.465236          -6.113700           0.000000
