# 
# This is the geometry file that corresponds to the current relaxation step.
# If you do not want this file to be written, set the "write_restart_geometry" flag to .false.
#  aims_uuid : A0F0CDA9-EE47-4A26-AE9B-296B54BE2102                                
# 
lattice_vector      5.84640647      0.00000000      0.00000000
lattice_vector      0.00000000      5.95519074      0.00000000
lattice_vector      0.00000000      0.00000000      7.47605369
atom_frac       0.50149759      0.00100504      0.00081132 Pd
atom_frac       0.00097779      0.00099712      0.50176903 Pd
atom_frac       0.00108099      0.50153512      0.00085094 Pd
atom_frac       0.50159763      0.50152641      0.50172685 Pd
atom_frac       0.61330150      0.11911035      0.40378103 Se
atom_frac       0.89032778      0.88400117      0.90413107 Se
atom_frac       0.11276412      0.38350252      0.59947617 Se
atom_frac       0.38976668      0.61962723      0.09877285 Se
atom_frac       0.38981911      0.88403596      0.59947977 Se
atom_frac       0.11280704      0.11912984      0.09880367 Se
atom_frac       0.89031703      0.61960989      0.40378631 Se
atom_frac       0.61329539      0.38347198      0.90416363 Se
# 
# What follows is the current estimated Hessian matrix constructed by the BFGS algorithm.
# This is NOT the true Hessian matrix of the system.
# If you do not want this information here, switch it off using the "hessian_to_restart_geometry" keyword.
# 
trust_radius             0.0122096179
hessian_block                1       1           5.969064          -0.055770          -2.253961          -0.055770           6.484303          -1.005797          -2.253961          -1.005797           4.835694
hessian_block                1       2          -0.143074           0.678273           0.191143           0.271919           0.742206           0.076643          -0.034438           0.276708           0.096261
hessian_block                1       3          -0.162333           0.945916           0.260468          -0.076311          -0.292025           0.014015          -0.237169           0.401555           0.153033
hessian_block                1       4           0.530559           0.288863          -0.059236           0.172917          -0.201948          -0.132237           0.070341           0.085606           0.027512
hessian_block                1       5          -0.024895          -0.679423          -0.312550          -0.556805           0.384321           0.368773          -0.278056           0.105111           0.253026
hessian_block                1       6          -1.527818          -0.241659           0.439486           0.613739          -0.845314          -0.433748           1.576415          -1.098422          -0.864499
hessian_block                1       7          -0.461130           0.320770           0.274075           0.192832           0.207241           0.131224           0.092642          -0.239694          -0.139045
hessian_block                1       8          -0.168814          -0.807924           0.243280          -0.350046          -2.150676           0.685207          -0.040030           0.970141          -0.442087
hessian_block                1       9          -0.135764           0.054435           0.206020          -0.217614          -0.709578          -0.236944          -0.037758          -0.301298          -0.097058
hessian_block                1      10          -2.515934           1.174550           1.253740          -0.065097           0.243902          -0.092199           0.559346           0.285307          -0.298816
hessian_block                1      11           0.237996          -0.665128          -0.306279           0.137011          -0.417328          -0.204378           0.038031           0.275944           0.271312
hessian_block                1      12          -0.031947          -1.012902           0.063815          -0.066776          -1.798081           0.829439           0.544637           0.244837          -0.693468
hessian_block                2       2           6.520769           0.504588           2.470168           0.504588           7.711534           1.961408           2.470168           1.961408           5.046335
hessian_block                2       3           1.377916           1.219433           0.638052          -0.585792          -0.361468          -0.206614           0.538988           0.394149           0.279107
hessian_block                2       4           0.252922           0.641123           0.158292          -0.718251           0.778045           0.256393          -0.033148           0.509344           0.142841
hessian_block                2       5          -2.450130           0.036135          -0.990148           0.893776          -0.186029           0.312779          -0.602733          -0.067910          -0.587065
hessian_block                2       6          -0.999995          -0.766081          -0.368802          -0.617836          -1.618833          -0.736703          -1.073781          -1.102388          -0.711983
hessian_block                2       7           0.214681          -0.463754          -0.155694          -0.338548          -2.001839          -0.987872          -0.482917          -1.593889          -0.738512
hessian_block                2       8          -0.429907          -0.833773          -0.409963           0.120641          -0.687390          -0.257553           0.145369           0.038262           0.168038
hessian_block                2       9          -1.973761           0.276373          -1.006190           0.399489          -1.613797          -0.156319          -1.278273          -0.347647          -0.658668
hessian_block                2      10           1.053864           0.393288           0.383762           0.709873           1.339421           0.864321           0.759569           1.224742           0.740283
hessian_block                2      11          -1.008843          -0.980260          -0.476737          -0.733089          -3.063173          -1.403280          -0.015875          -0.758511          -0.510994
hessian_block                2      12          -0.848528          -0.298992          -0.208301          -0.313125           0.608346           0.076733          -0.618509          -0.334203          -0.163778
hessian_block                3       3           7.173941          -0.616848           2.840437          -0.616848           6.239785          -1.348536           2.840437          -1.348536           5.110770
hessian_block                3       4           0.373374          -0.247160          -0.009351          -0.401784           0.349543          -0.149447           0.146635          -0.051040           0.064082
hessian_block                3       5          -0.880083           0.179151          -0.502971           0.431793           0.157896           0.537707           0.151470           0.053088           0.257932
hessian_block                3       6          -1.506376           0.813094          -1.018054          -0.720675          -1.633143           0.280715          -1.950122           1.073038          -1.503820
hessian_block                3       7           0.402805          -0.028491           0.378261           0.054244          -0.041264           0.089891          -0.560377           0.044528          -0.332311
hessian_block                3       8          -2.450106          -0.235188          -1.027847          -0.771133          -0.441075          -0.567331          -0.600557          -0.274497          -0.317731
hessian_block                3       9          -0.286460           0.342603           0.125773          -0.634385          -0.056167          -0.381805          -0.673730           0.274713          -0.210932
hessian_block                3      10           1.226447           0.254293           0.664116           1.826352          -2.167709           1.596615           1.094654           0.536742           0.204761
hessian_block                3      11          -0.993541           0.345591          -0.530429          -0.669893          -0.047275          -0.490164           0.283901           0.038286           0.280996
hessian_block                3      12          -2.709673          -0.144943          -1.221753          -0.663021          -0.060076          -0.363349          -1.630830          -0.153721          -0.884024
hessian_block                4       4           5.940181           0.131047          -1.978466           0.131047           7.167328           1.607812          -1.978466           1.607812           4.889266
hessian_block                4       5          -0.472466           0.923947           0.290089           0.190869          -2.168737          -1.019804          -0.032239          -1.248488          -0.616524
hessian_block                4       6          -0.169293           0.299073           0.051518          -0.339025          -0.688696          -0.381648           0.180989          -0.109149          -0.081580
hessian_block                4       7          -1.954594          -0.864119           0.747424          -0.263979          -0.591134           0.120797           0.765060          -0.170786          -0.590562
hessian_block                4       8          -0.265505          -0.231885          -0.213734           0.063529          -0.710249          -0.195605          -0.176122          -0.062090           0.041863
hessian_block                4       9          -0.297821           0.510690           0.112466           0.025244          -2.662186          -1.202574           0.056980          -0.888197          -0.563297
hessian_block                4      10          -0.338229          -0.455640          -0.124607          -0.135101           0.670632           0.340401           0.170550           0.403168           0.270924
hessian_block                4      11          -1.900246           0.037000           0.872854          -0.724022          -0.903559          -0.032956           0.897406           0.106627          -0.524218
hessian_block                4      12          -0.132971           0.597006           0.058630           0.368612           0.607983           0.219667           0.026139           0.386396           0.041558
hessian_block                5       5           5.509941          -0.847953          -1.225968          -0.847953           6.260242          -0.991280          -1.225968          -0.991280           7.473789
hessian_block                5       6           0.789275          -0.591357          -0.232270           0.468962          -0.533832           0.469455           0.655162          -1.408954           0.337104
hessian_block                5       7          -0.626162           1.142045          -0.053864          -0.891465           0.401573           0.370718           0.425687           0.222753          -0.938197
hessian_block                5       8           0.167016          -0.151674           0.475471           0.365775          -0.278582          -0.456674           0.214678           0.616014          -0.693495
hessian_block                5       9          -1.361269          -0.289013           1.800666          -0.135353          -1.831837           2.140380           1.790155           2.047118          -3.284916
hessian_block                5      10          -0.596550           0.985050           0.380197          -0.177394           0.789105          -0.380317          -0.148598           0.541338          -0.677548
hessian_block                5      11           0.975875          -1.099189           0.112692           0.893322          -0.809774          -0.190757          -0.687924          -0.124896           1.045290
hessian_block                5      12           0.535361          -0.107540          -0.495366          -0.135704          -0.537324           0.196673           0.492391          -1.101549           0.532470
hessian_block                6       6           5.831519           0.811871           2.871672           0.811871           6.480270           2.815352           2.871672           2.815352          10.277678
hessian_block                6       7          -0.148220          -0.328873          -0.653241           0.222057           0.304364           0.846299           0.387204           0.442851           0.108917
hessian_block                6       8           0.305194           0.843697           0.760027           0.444577           0.669278           0.743624          -0.376381          -0.532231          -1.286602
hessian_block                6       9           0.023446           0.191944           0.104413           0.537206           1.406836           1.067167           0.323287           0.178771          -0.299454
hessian_block                6      10          -2.331228          -1.790170          -3.902697          -1.873344          -2.812363          -4.038307          -2.806374          -3.176546          -5.237152
hessian_block                6      11           0.504552           0.614095           0.785347           0.288639           1.147437           0.710375          -0.347053           0.181006           0.344480
hessian_block                6      12           0.794856           0.252271           0.645819           0.055924          -0.228980           0.501367           1.075768           0.892727           2.018775
hessian_block                7       7           5.424552           0.680802           1.012109           0.680802           6.018326          -1.146759           1.012109          -1.146759           7.781987
hessian_block                7       8          -0.223854           0.101048           0.049166          -0.053159          -0.019943           0.923958           0.440801          -0.501049           0.810846
hessian_block                7       9           0.463181           0.605805          -0.181954          -0.653191          -0.402308           0.125738           0.281395          -0.253756           1.253648
hessian_block                7      10           0.520827          -0.452967          -0.367163           0.546612          -0.634253          -0.578715           0.057313          -0.988618           0.031738
hessian_block                7      11          -1.966180           0.196420          -1.547959           0.168897          -1.755388           2.578603          -1.550917           2.159442          -3.445910
hessian_block                7      12          -0.079993          -0.106250           0.408503          -0.467538           0.161648          -0.608591          -0.777660           0.159681          -0.700735
hessian_block                8       8           4.916383           0.176033          -1.121293           0.176033           5.848071           1.238137          -1.121293           1.238137           7.215377
hessian_block                8       9           0.290163          -0.421995          -0.218225           0.590838           0.716352          -0.350223           0.028571           0.516132           0.842691
hessian_block                8      10          -0.327216          -0.426906           0.629753          -0.970822          -0.689777           0.746637          -0.856658          -0.371015           0.998605
hessian_block                8      11           0.459835          -0.086496          -0.411595           0.540926           0.986018           0.263743           0.346013          -0.638875          -0.837802
hessian_block                8      12          -0.707277           0.939179           1.513599           0.978724          -1.595001          -2.152844           1.726967          -1.620004          -3.397841
hessian_block                9       9           5.026349          -0.530812          -0.783478          -0.530812           6.810450          -1.097925          -0.783478          -1.097925           7.588977
hessian_block                9      10          -0.005313          -0.153622          -0.220348          -0.315563          -0.890722          -0.161487          -0.557097          -0.853474           0.268840
hessian_block                9      11          -0.291739           0.885260          -0.067278          -0.557611           1.350943           0.551660           0.473890           0.103400          -1.019348
hessian_block                9      12           0.114898          -0.113060           0.580478           0.133143          -0.470962          -0.518086          -0.076284           0.842577          -0.718620
hessian_block               10      10           6.337637           1.339604           2.344509           1.339604           7.419501           2.944726           2.344509           2.944726           8.734696
hessian_block               10      11          -0.640254          -0.622121          -0.271100          -0.311602          -1.302149          -0.340336           0.162032          -0.399585          -0.542101
hessian_block               10      12          -0.818139          -0.263000          -0.346113          -0.555875          -0.318565          -0.206034          -1.203295          -0.842093          -1.392365
hessian_block               11      11           5.771399           0.947406           0.882020           0.947406           6.837086          -1.473505           0.882020          -1.473505           7.476345
hessian_block               11      12           0.417055           0.020015          -0.481525           0.427423          -0.375812           0.530666           0.958464           0.030994           0.563814
hessian_block               12      12           5.032269           0.238215          -0.517786           0.238215           5.653850           1.494358          -0.517786           1.494358           7.896079
hessian_block_lv             1       1          22.726202          -5.177778           4.250780          -5.177778          19.345578           1.606710           4.250780           1.606710           1.791098
hessian_block_lv_atom        1       1          -0.249264           0.142248          -0.149018           0.060486          -0.026090           0.205855           0.024414          -0.211437           0.119324
hessian_block_lv_atom        1       2          -0.127938          -0.217113           0.176608          -0.076790          -0.503695           0.186441           0.091116          -0.194888           0.082903
hessian_block_lv_atom        1       3          -0.100837          -0.491635           0.274855           0.151707           0.322750          -0.001067           0.098118          -0.473979           0.226871
hessian_block_lv_atom        1       4          -0.184714          -0.130089          -0.044477           0.103495          -0.153183           0.004742           0.019466           0.064490          -0.022667
hessian_block_lv_atom        1       5           0.205969           0.470477           0.185178           0.467419           0.485750           0.580445          -0.934323          -1.713177          -1.147178
hessian_block_lv_atom        1       6          -0.196493          -0.791065          -0.668078          -0.176510          -0.150091          -0.591228          -1.632079          -2.276646          -1.826405
hessian_block_lv_atom        1       7           0.064151          -0.196638           0.420564          -0.768104          -0.812049          -0.496429           1.205703           2.534866           1.138151
hessian_block_lv_atom        1       8          -0.192323           0.332295          -0.441407           0.143213           0.395267           0.151771           1.134569           1.914627           1.327823
hessian_block_lv_atom        1       9          -0.014077          -0.060844          -0.279407          -0.324463          -0.363921          -0.519900           1.256857           2.564445           1.192877
hessian_block_lv_atom        1      10           0.364667           0.565448           0.766533           0.225143          -0.241605           0.636363           1.183687           1.843627           1.579896
hessian_block_lv_atom        1      11           0.055926           0.132278          -0.458897           0.599215           1.362544           0.248071          -1.063505          -1.695998          -1.169656
hessian_block_lv_atom        1      12           0.374934           0.244640           0.217548          -0.404813          -0.315679          -0.405065          -1.384025          -2.355929          -1.501940
symmetry_n_params 39 3 36
symmetry_params a1 b2 c3 x0 x1 x2 x3 x4 x5 x6 x7 x8 x9 x10 x11 x12 x13 x14 x15 x16 x17 x18 x19 x20 x21 x22 x23 x24 x25 x26 x27 x28 x29 x30 x31 x32 x33 x34 x35
symmetry_lv a1 , 0 , 0 
symmetry_lv 0 , b2 , 0 
symmetry_lv 0 , 0 , c3
symmetry_frac x0 , x1 , x2
symmetry_frac x3 , x4 , x5
symmetry_frac x6 , x7 , x8
symmetry_frac x9 , x10 , x11
symmetry_frac x12 , x13 , x14
symmetry_frac x15 , x16 , x17
symmetry_frac x18 , x19 , x20
symmetry_frac x21 , x22 , x23
symmetry_frac x24 , x25 , x26
symmetry_frac x27 , x28 , x29
symmetry_frac x30 , x31 , x32
symmetry_frac x33 , x34 , x35
