# 
# This is the geometry file that corresponds to the current relaxation step.
# If you do not want this file to be written, set the "write_restart_geometry" flag to .false.
#  aims_uuid : 453D4F17-19C6-404A-ADB1-8E1C5850CFF6                                
# 
lattice_vector      5.85270435      0.00000000      0.00000000
lattice_vector      0.00000000      5.95571581      0.00000000
lattice_vector      0.00000000      0.00000000      7.47615656
atom_frac       0.50156766      0.00138517      0.00158203 Pd
atom_frac       0.00141417      0.00134772      0.50124789 Pd
atom_frac       0.00122166      0.50141751      0.00159168 Pd
atom_frac       0.50135533      0.50136287      0.50123268 Pd
atom_frac       0.61358213      0.11954933      0.40427740 Se
atom_frac       0.88930856      0.88325282      0.90441009 Se
atom_frac       0.11356637      0.38314548      0.59840315 Se
atom_frac       0.38904753      0.61969070      0.09848630 Se
atom_frac       0.38921325      0.88314121      0.59839477 Se
atom_frac       0.11369508      0.11965308      0.09847466 Se
atom_frac       0.88924112      0.61958428      0.40427683 Se
atom_frac       0.61356218      0.38324484      0.90439756 Se
# 
# What follows is the current estimated Hessian matrix constructed by the BFGS algorithm.
# This is NOT the true Hessian matrix of the system.
# If you do not want this information here, switch it off using the "hessian_to_restart_geometry" keyword.
# 
trust_radius             0.0304491337
hessian_block                1       1           6.134042          -0.104852          -2.104669          -0.104852           6.617402          -1.358411          -2.104669          -1.358411           4.874153
hessian_block                1       2           0.047855           0.078279           0.066237           0.358938           0.258144          -0.094136           0.000892           0.111784           0.007140
hessian_block                1       3          -0.024218           0.435173          -0.019271          -0.339253           0.459098          -0.194246           0.044638          -0.189049           0.153494
hessian_block                1       4           0.649743           0.260278          -0.079912           0.087093          -0.114497          -0.155229          -0.035285           0.186354          -0.027135
hessian_block                1       5          -0.155204          -0.102290          -0.405570          -0.141757          -0.243039           0.324269          -0.226078          -0.049931           0.261330
hessian_block                1       6          -1.841529           0.211120           0.689240           0.523821          -0.349207          -0.154647           1.047516           0.073245          -0.740551
hessian_block                1       7          -0.322431          -0.215542           0.274472           0.176998           0.154771           0.203056           0.176441          -0.203312           0.043540
hessian_block                1       8          -0.521552          -0.483943           0.248188          -0.334823          -2.006201           0.813520           0.179480           0.991805          -0.552066
hessian_block                1       9          -0.213272           0.106510           0.288143          -0.560729          -0.110945          -0.159509           0.110451          -0.306638           0.040587
hessian_block                1      10          -2.154573           0.378747           1.188414           0.213819          -0.878614          -0.150425           0.706086          -0.204132          -0.518201
hessian_block                1      11          -0.002144          -0.128193          -0.149152           0.107658           0.027651          -0.127072           0.169483           0.061844           0.256032
hessian_block                1      12          -0.030805          -0.435286           0.003879           0.013084          -2.167540           1.052829          -0.068957           0.886442          -0.696459
hessian_block                2       2           6.416180           0.022717           2.128686           0.022717           7.239329           1.706438           2.128686           1.706438           4.874037
hessian_block                2       3           0.568725           0.555065           0.286994          -0.703924          -0.294645          -0.033332           0.151250          -0.003384           0.039183
hessian_block                2       4          -0.157158           0.538053           0.137673          -0.784426           0.839941           0.337318          -0.101133           0.478380           0.136963
hessian_block                2       5          -1.709155           0.197646          -0.842907           0.337614          -0.786863          -0.082047          -0.728263          -0.070006          -0.597204
hessian_block                2       6          -0.316435           0.050397          -0.028726          -0.483261          -0.905519          -0.291360          -0.604322           0.088851           0.053954
hessian_block                2       7          -0.165900          -0.703404          -0.367694          -0.331135          -1.876113          -0.977363           0.039723          -1.492776          -0.745041
hessian_block                2       8           0.174962          -0.428118          -0.190712           0.089294          -0.483031          -0.100508          -0.360355          -0.399912           0.061534
hessian_block                2       9          -2.169128           0.391554          -0.927527           0.865195          -0.988700           0.211692          -0.871867          -0.360023          -0.709783
hessian_block                2      10           0.138612          -0.304001           0.016188           0.725446           0.706418           0.312390           0.443439           0.471366           0.301644
hessian_block                2      11          -0.665681          -0.432820          -0.128482          -0.180849          -2.857067          -1.227333          -0.195130          -0.845664          -0.581707
hessian_block                2      12          -0.596960          -0.246029          -0.084385           0.365050           0.795130           0.032321           0.031737           0.520866           0.261145
hessian_block                3       3           6.257157          -0.271383           2.241903          -0.271383           6.988438          -1.538915           2.241903          -1.538915           4.986832
hessian_block                3       4           0.301449          -0.092637           0.002501          -0.219195           0.368254          -0.120086           0.143815           0.117588          -0.042489
hessian_block                3       5          -0.466973           0.281353          -0.491210          -0.442032           0.123570           0.282051          -0.011836          -0.032883           0.236162
hessian_block                3       6          -0.615581           0.491008          -0.532873           0.289811          -1.891665           1.001790          -0.428520           1.199413          -0.885313
hessian_block                3       7          -0.138456          -0.172785           0.212119           0.041696          -0.077778           0.147019          -0.357222          -0.238500          -0.054036
hessian_block                3       8          -1.992767          -0.324822          -0.961114          -0.403762          -0.535078          -0.256663          -0.825865           0.004690          -0.403017
hessian_block                3       9          -0.147432           0.393549           0.238164           0.220781          -0.023996          -0.086390          -0.564567           0.038805           0.013105
hessian_block                3      10           0.322061           0.259411           0.363347           0.677279          -2.645798           1.120713           0.268351           0.773306          -0.369478
hessian_block                3      11          -0.122055           0.302612          -0.111060          -0.203374          -0.070493          -0.235441          -0.003620          -0.016455           0.214505
hessian_block                3      12          -2.375999           0.176868          -1.157665          -0.680060          -0.752884          -0.121644          -0.730161          -0.079468          -0.787085
hessian_block                4       4           6.246248           0.294906          -2.016820           0.294906           7.180200           1.611513          -2.016820           1.611513           4.935526
hessian_block                4       5          -0.614212           0.518932           0.276305           0.233052          -2.122311          -1.191622          -0.089004          -1.178585          -0.572293
hessian_block                4       6          -0.255032           0.396652           0.154319           0.262278          -0.512220          -0.397815           0.543159           0.165540           0.196105
hessian_block                4       7          -2.052551          -0.693714           0.719297          -0.409141          -0.442939           0.192658           0.674511          -0.400480          -0.720394
hessian_block                4       8          -0.624481          -0.312113          -0.072825           0.404692          -0.679847          -0.237940           0.266475          -0.131242          -0.123670
hessian_block                4       9          -0.202733           0.652130           0.188120           0.057949          -2.612673          -1.044242           0.051303          -1.122006          -0.734455
hessian_block                4      10          -0.132492          -0.342060          -0.236926          -0.804998           0.529861           0.212741          -0.052165           0.242676           0.176060
hessian_block                4      11          -1.645876           0.034154           0.945246          -0.670517          -1.214728          -0.074446           0.846157           0.195072          -0.513539
hessian_block                4      12           0.053008           0.367638           0.035888          -0.073915           0.427982           0.146828          -0.283875           0.555508           0.391186
hessian_block                5       5           5.995536          -0.281354          -1.230202          -0.281354           6.113502          -0.970264          -1.230202          -0.970264           7.167799
hessian_block                5       6           0.431162          -0.192367          -0.214543          -0.717779           0.293579           0.501243          -0.061463          -0.377659           0.083057
hessian_block                5       7          -0.329517           0.961451          -0.033957          -0.788119           0.207851           0.245450           0.574705           0.533124          -0.500691
hessian_block                5       8           0.177736          -0.244422           0.549521          -0.138915           0.235483          -0.252569           0.023543           0.584448          -0.299164
hessian_block                5       9          -1.858071          -0.495468           1.890363          -0.656913          -1.660646           2.006924           1.948589           2.338089          -2.880008
hessian_block                5      10          -0.795914           0.528735           0.406131           0.712728           0.033671          -0.384728           0.306762          -0.350165          -0.515100
hessian_block                5      11           0.081500          -0.764294           0.190428           0.954145          -0.100137          -0.003619          -0.474378          -0.104801           0.669408
hessian_block                5      12           0.809023           0.500845          -0.502558           0.020563          -0.447635           0.188965           0.375828          -0.985422           0.048572
hessian_block                6       6           5.200536           0.111714           1.525482           0.111714           6.963115           2.004275           1.525482           2.004275           8.585774
hessian_block                6       7           0.108206           0.000324          -0.036064           0.069058           0.248378           0.369609           0.100234           0.005938          -0.331185
hessian_block                6       8           0.274022           0.049304           0.037961           0.004122           0.733051           0.652944           0.025414           0.791241           0.175849
hessian_block                6       9           0.014136           0.594069           0.182540           0.006088           0.738211          -0.063704           0.144491          -0.023167          -0.495388
hessian_block                6      10          -1.656874          -0.626552          -2.439662          -0.952562          -3.064620          -3.450575          -1.878834          -2.851982          -3.930674
hessian_block                6      11           0.017144           0.344522          -0.017349          -0.303262           0.268407          -0.058245          -0.350695           0.263988           0.097012
hessian_block                6      12           0.206160          -0.348249           0.250726           0.108033          -0.874488          -0.603691           0.366494          -0.849505           0.293222
hessian_block                7       7           5.550902           0.425895           1.105360           0.425895           5.835144          -1.043430           1.105360          -1.043430           7.513446
hessian_block                7       8          -0.207447           0.225860          -0.121890           0.378887          -0.064689           0.569029           0.134965          -0.244273           0.378787
hessian_block                7       9           0.314576           0.687106          -0.444487          -0.558199          -0.353786          -0.099078           0.313950          -0.123167           1.023607
hessian_block                7      10           0.449846          -0.338844          -0.201805           0.438303          -0.543657           0.057144          -0.389274          -0.589210           0.064769
hessian_block                7      11          -1.761566           0.406414          -1.963169           0.560704          -1.686892           2.500173          -1.627460           1.930953          -2.901055
hessian_block                7      12           0.120252          -0.165787           0.417600          -0.421922           0.246734          -0.187835          -0.305713          -0.111305          -0.669883
hessian_block                8       8           5.384242          -0.443165          -1.461023          -0.443165           6.087411           1.419993          -1.461023           1.419993           7.431196
hessian_block                8       9           0.278764          -0.380697          -0.004192           0.589458           0.320437           0.010689          -0.177363           0.229471           0.484317
hessian_block                8      10          -0.414894           0.324304           0.291168          -0.119078          -0.664876          -0.733579          -0.255621          -0.459702          -0.252905
hessian_block                8      11           0.193988          -0.360381          -0.058849           0.142519           0.732230           0.183255           0.379921          -0.381085          -0.353262
hessian_block                8      12          -1.156663           0.860444           1.789237           1.348518          -2.027863          -2.477114           2.024956          -1.996491          -3.445735
hessian_block                9       9           5.443130          -0.339699          -1.042281          -0.339699           6.577271          -1.248730          -1.042281          -1.248730           7.412636
hessian_block                9      10           0.261582           0.391069          -0.177930          -0.723648          -0.299142           0.219400          -0.602337           0.119352           0.130619
hessian_block                9      11           0.043448           0.623087          -0.403213          -0.852310           0.729228           0.508716           0.451953          -0.032650          -0.477542
hessian_block                9      12          -0.199088          -0.638087           0.668439          -0.033096          -0.668234          -0.150751          -0.218457           0.385643          -0.705831
hessian_block               10      10           6.096336           0.312986           1.265014           0.312986           8.168937           2.524565           1.265014           2.524565           8.019911
hessian_block               10      11           0.077489          -0.354485           0.298280           0.067065          -0.575276           0.002239           0.105613          -0.477109          -0.367013
hessian_block               10      12          -0.625269          -0.125793          -0.109701          -0.650859           0.880120           0.321686          -0.579551           0.749461           0.362235
hessian_block               11      11           5.532265           0.180184           0.997828           0.180184           6.797340          -1.111479           0.997828          -1.111479           7.052082
hessian_block               11      12          -0.182605           0.198031          -0.299671           0.149201          -0.403238           0.517386           0.399490          -0.356748           0.006942
hessian_block               12      12           5.544856          -0.144598          -1.011790          -0.144598           6.638942           1.281018          -1.011790           1.281018           8.043554
hessian_block_lv             1       1          20.301432          -4.068815           3.907180          -4.068815          18.473776           1.651834           3.907180           1.651834           1.515974
hessian_block_lv_atom        1       1          -0.419955           0.105043          -0.011110           0.251355          -0.325300          -0.059244          -0.133874          -0.372206          -0.028923
hessian_block_lv_atom        1       2           0.235004          -0.249805           0.045673           0.244210          -0.874870          -0.136877           0.518669          -0.385721           0.015777
hessian_block_lv_atom        1       3           0.540038          -0.872292          -0.011498          -0.149667           0.328817          -0.063670           0.224267          -0.774759           0.041695
hessian_block_lv_atom        1       4           0.063196          -0.358625           0.011934          -0.073291          -0.286494          -0.105380           0.095029          -0.023687          -0.085751
hessian_block_lv_atom        1       5          -1.068855           0.729114           0.126842           0.683382          -0.067683           0.389860          -1.841699          -1.140017          -1.090288
hessian_block_lv_atom        1       6           0.282692          -0.098624          -0.133324          -0.233909           0.066796          -0.069011          -2.833519          -1.006642          -1.261842
hessian_block_lv_atom        1       7           0.224875          -0.363212           0.212057          -0.149505          -0.482382          -0.246828           2.006504           2.052764           1.254348
hessian_block_lv_atom        1       8           0.043105           0.787063          -0.291427          -0.187456           0.174068           0.166045           1.832870           0.724272           1.107374
hessian_block_lv_atom        1       9           0.540421          -0.125075          -0.197359          -0.329569           0.326161          -0.165035           2.073165           1.954291           1.283058
hessian_block_lv_atom        1      10           0.235498          -0.098208           0.270946           0.618670          -0.305303           0.258706           2.198958           0.927549           1.077317
hessian_block_lv_atom        1      11           0.002727           0.360773          -0.199825          -0.402600           1.326312           0.227156          -1.819417          -1.148523          -1.060300
hessian_block_lv_atom        1      12          -0.678746           0.183848           0.177091          -0.271623           0.119876          -0.195723          -2.320954          -0.807318          -1.252467
