# 
# This is the geometry file that corresponds to the current relaxation step.
# If you do not want this file to be written, set the "write_restart_geometry" flag to .false.
#  aims_uuid : 77EB9819-49B3-410B-A8A1-BF86CE927F8E                                
# 
lattice_vector      5.86156665      0.00000000      0.00000000
lattice_vector      0.00000000      5.96282117      0.00000000
lattice_vector      0.00000000      0.00000000      7.39570862
atom_frac       0.50202968      0.00187598      0.00188170 Pd
atom_frac       0.00184812      0.00190044      0.50206567 Pd
atom_frac       0.00190800      0.50202185      0.00188703 Pd
atom_frac       0.50207709      0.50205157      0.50205451 Pd
atom_frac       0.61378696      0.11973291      0.40353089 Se
atom_frac       0.89034852      0.88435356      0.90365057 Se
atom_frac       0.11377535      0.38420694      0.60049281 Se
atom_frac       0.39012309      0.61987069      0.10034737 Se
atom_frac       0.39019895      0.88436490      0.60049727 Se
atom_frac       0.11381742      0.11975599      0.10042937 Se
atom_frac       0.89037093      0.61979938      0.40353693 Se
atom_frac       0.61382413      0.38417400      0.90373410 Se
# 
# What follows is the current estimated Hessian matrix constructed by the BFGS algorithm.
# This is NOT the true Hessian matrix of the system.
# If you do not want this information here, switch it off using the "hessian_to_restart_geometry" keyword.
# 
trust_radius             0.0122096179
hessian_block                1       1           6.726052          -2.021017          -2.973844          -2.021017          11.481254           0.765663          -2.973844           0.765663           5.466111
hessian_block                1       2          -2.285136           6.138718           2.116645          -1.849232           6.210810           2.034217          -1.156146           3.247771           1.178510
hessian_block                1       3          -3.024436           8.319767           2.895450           0.457871          -1.634152          -0.482155          -1.963877           4.825508           1.737574
hessian_block                1       4           0.468693           0.442163           0.004772           0.537834          -1.044565          -0.429938          -0.036842           0.395387           0.144134
hessian_block                1       5           1.199149          -3.774356          -1.476604          -2.564649           5.489348           2.224993          -0.141484          -0.377508           0.105958
hessian_block                1       6           1.049765          -6.936708          -1.909275           3.370856          -8.067062          -2.973412           5.910966         -12.540573          -4.902565
hessian_block                1       7          -1.794352           3.676852           1.531187           0.271197          -0.117481           0.022191           0.564831          -1.421836          -0.596328
hessian_block                1       8           0.895225          -3.645188          -0.797919           0.811045          -5.107567          -0.353523          -1.588756           4.938406           0.939120
hessian_block                1       9          -0.122576          -0.026296           0.198260           1.855552          -5.957801          -2.126694           0.105967          -0.600073          -0.246744
hessian_block                1      10          -5.103424           7.970983           3.714839          -2.957905           7.906313           2.636150          -2.198027           7.729926           2.312314
hessian_block                1      11           2.543156          -6.471131          -2.384668           1.752335          -4.584632          -1.728358           0.018816           0.182465           0.256680
hessian_block                1      12           1.013794          -3.673786          -0.918844           0.336110          -2.927442           0.410866           3.458396          -7.145136          -3.292900
hessian_block                2       2          12.499494           6.477747           5.747871           6.477747          13.650212           5.174843           5.747871           5.174843           6.713083
hessian_block                2       3           9.480825           9.274359           4.938329          -2.085492          -1.861145          -0.993352           5.402891           5.239008           2.868501
hessian_block                2       4           0.483476           0.867689           0.205509          -1.668398          -0.213017          -0.272885           0.282935           0.809598           0.307230
hessian_block                2       5          -5.943133          -3.456004          -2.673575           6.529003           5.441411           3.281219          -1.097408          -0.499175          -0.881764
hessian_block                2       6          -8.284186          -7.994874          -4.353956          -8.444378          -9.358909          -5.010597         -13.524515         -13.352944          -7.424826
hessian_block                2       7           3.919797           3.256565           1.745234          -0.638482          -2.240332          -1.186599          -1.818482          -2.936825          -1.355364
hessian_block                2       8          -3.600102          -3.931146          -1.964474          -3.102887          -3.914475          -2.031736           4.462694           4.343056           2.586230
hessian_block                2       9          -2.044139           0.229329          -1.096438          -5.335442          -7.359970          -3.275193          -1.641104          -0.742964          -0.759200
hessian_block                2      10           8.508875           7.743860           4.252214           9.068621           9.551649           5.309087           8.823932           9.088135           5.072370
hessian_block                2      11          -7.372930          -7.374743          -3.938115          -5.367390          -7.663250          -3.738362          -0.056998          -0.736059          -0.568855
hessian_block                2      12          -3.796925          -3.243550          -1.706453          -1.571620          -0.595961          -0.504194          -8.698459          -8.420889          -4.634049
hessian_block                3       3          17.981642          -2.590783           9.329686          -2.590783           6.617991          -2.543879           9.329686          -2.543879           9.010056
hessian_block                3       4           0.541577          -0.253669           0.087109          -1.655182           0.562786          -0.899480           0.592318          -0.138829           0.336183
hessian_block                3       5          -5.252882           0.938099          -3.135813           7.901476          -1.216604           5.035365          -0.601726           0.219313          -0.187512
hessian_block                3       6         -11.424285           2.645491          -6.964462         -11.407411           0.349438          -6.129817         -18.833087           4.231874         -11.637613
hessian_block                3       7           5.250682          -0.912771           3.307451          -0.477771           0.104492          -0.236217          -2.199326           0.318218          -1.322667
hessian_block                3       8          -6.518543           0.501198          -3.472012          -5.154477           0.356872          -3.195097           5.337991          -1.392002           3.243111
hessian_block                3       9          -0.474590           0.400932           0.014843          -8.391463           1.396694          -5.054235          -1.009280           0.306113          -0.420971
hessian_block                3      10          11.114873          -1.563775           6.610177          13.086953          -4.266802           8.361196          12.072206          -1.525989           6.785206
hessian_block                3      11          -9.571412           1.922976          -5.688080          -6.660133           1.017842          -4.089961           0.106533           0.104373           0.177907
hessian_block                3      12          -6.537538           0.539921          -3.527911          -2.245335           0.219611          -1.312389         -12.629093           1.896317          -7.487913
hessian_block                4       4           5.800031           0.187521          -1.930335           0.187521           7.235163           1.515575          -1.930335           1.515575           4.888041
hessian_block                4       5          -0.213940           1.293429           0.011823           0.236609          -2.996773          -0.684633          -0.222343          -1.046783          -0.581829
hessian_block                4       6          -0.549047           1.548038          -0.293439          -0.809907           0.716387          -0.726201          -0.536282           2.145120          -0.609853
hessian_block                4       7          -2.018186          -1.375468           0.995236          -0.498378          -0.381247           0.186165           0.910203          -0.052486          -0.706776
hessian_block                4       8          -0.235577           0.233982          -0.388968          -0.059021          -0.201148          -0.370592           0.097742          -0.807497           0.242052
hessian_block                4       9          -0.437398           0.590916           0.150501          -0.168377          -1.743672          -1.512792           0.253876          -0.940850          -0.639849
hessian_block                4      10          -0.162605          -1.680879           0.254727           0.285194          -0.818730           0.703197           0.766619          -1.168925           0.557210
hessian_block                4      11          -2.048286           0.994456           0.500605          -0.620503          -0.278252          -0.332817           0.684269           0.272118          -0.453803
hessian_block                4      12          -0.062826           0.993750          -0.138559           0.390679           0.810090           0.155940          -0.321136           1.686032          -0.380876
hessian_block                5       5           6.652484          -3.768781          -0.612600          -3.768781          11.422687          -1.561393          -0.612600          -1.561393           7.326209
hessian_block                5       6           5.243265          -7.507898           0.245829           5.400832          -8.015644           0.877674           8.341006         -13.242691           0.992996
hessian_block                5       7          -2.398819           4.484754          -0.467362          -0.242258          -0.063383           0.134104           0.770404          -0.859337          -0.670342
hessian_block                5       8           1.569995          -2.920879           0.833395           2.258317          -3.316386          -0.190486          -2.545950           4.788904          -0.947201
hessian_block                5       9          -1.051558          -0.455590           1.693569           3.223936          -7.264543           2.579316           1.570721           1.866930          -3.082365
hessian_block                5      10          -4.643937           7.840774          -0.212609          -5.182238           8.654433          -0.862512          -5.354012           8.260855          -0.940113
hessian_block                5      11           4.542281          -7.049907           0.705512           2.926207          -4.880248           0.404780          -0.217315          -0.322094           0.793845
hessian_block                5      12           1.863006          -2.724909          -0.122771           0.382815          -1.607274           0.322668           5.321918          -8.788116           1.173985
hessian_block                6       6          14.645050          10.214063          17.778932          10.214063          16.463548          18.620355          17.778932          18.620355          35.283260
hessian_block                6       7          -4.732894          -5.321517          -8.493288           0.397395           0.361543           0.961026           2.109961           2.372452           3.087608
hessian_block                6       8           4.197236           5.040918           7.321806           4.385747           4.910493           7.479022          -5.568420          -6.066814         -10.123457
hessian_block                6       9           0.024372           0.128202           0.056706           7.495703           8.885653          12.942171           0.877554           0.870164           0.716991
hessian_block                6      10         -11.384961         -11.485204         -19.137854         -11.902807         -13.455673         -20.842850         -12.359984         -13.210440         -21.068310
hessian_block                6      11           8.313616           9.052329          14.183547           6.062773           7.439679          10.564563          -0.458168          -0.065320          -0.050814
hessian_block                6      12           4.467982           4.261216           6.932067           1.593076           1.417570           3.034929          10.895430          11.441956          18.838446
hessian_block                7       7           7.597841           0.294081           0.364482           0.294081           5.688649          -0.845397           0.364482          -0.845397           7.880236
hessian_block                7       8          -1.938879           0.407175           0.544758          -2.055988           0.138502           1.653843           3.223687          -0.582329          -0.269568
hessian_block                7       9           0.326031           0.444832          -0.035915          -4.264434          -0.118294           1.418189           0.212283           0.025389           1.137451
hessian_block                7      10           4.985350          -0.822674          -1.889595           5.728255          -0.771682          -2.507399           5.196363          -0.833466          -2.014423
hessian_block                7      11          -5.881013           0.629216          -0.196107          -2.389317          -1.214919           3.290344          -1.757666           1.820336          -3.215077
hessian_block                7      12          -1.749645           0.235667           0.874786          -1.121011           0.261176          -0.429769          -5.857604           0.534795           1.147114
hessian_block                8       8           6.329149           1.891331          -3.519403           1.891331           7.593224          -1.088123          -3.519403          -1.088123          10.268673
hessian_block                8       9           0.457284          -0.391495          -0.196592           3.591256           3.806821          -4.494904           0.022109           0.721276           0.460130
hessian_block                8      10          -3.975972          -4.465232           6.073555          -5.284283          -5.211154           6.720497          -5.146392          -4.743632           6.643312
hessian_block                8      11           3.755328           3.346021          -5.055449           2.630091           3.498484          -3.252088           0.494160          -0.612967          -0.730222
hessian_block                8      12           0.630766           2.536638          -0.721100           1.485543          -0.906639          -3.107106           6.072939           2.732015          -9.210317
hessian_block                9       9           4.951028          -0.483002          -0.649470          -0.483002          12.370529          -0.717207          -0.649470          -0.717207           7.415821
hessian_block                9      10          -0.138599          -7.285774          -0.575403          -0.325894          -8.855458          -0.777567          -0.437130          -8.501332          -0.524941
hessian_block                9      11          -0.179443           7.030599           0.255215          -0.310561           5.780222           0.519156           0.311680           0.124477          -0.768900
hessian_block                9      12           0.255500           2.731446           0.577533           0.198627           0.706843          -0.530369          -0.010013           8.618200          -0.185559
hessian_block               10      10          15.280272          11.478783          12.139499          11.478783          18.676853          13.608662          12.139499          13.608662          18.612906
hessian_block               10      11          -8.573956          -9.587576          -9.003430          -5.794282          -7.794105          -6.862726           0.114118          -0.192530          -0.070291
hessian_block               10      12          -4.340004          -4.407104          -4.499643          -1.936576          -1.968621          -1.841069         -11.343667         -12.155933         -12.263374
hessian_block               11      11          12.533741           5.769881           1.033924           5.769881           9.911690          -1.147488           1.033924          -1.147488           7.146684
hessian_block               11      12           3.504826           2.000894          -0.273352           1.737878           0.414514           0.572689           9.587045           6.372957           0.584710
hessian_block               12      12           6.316974           0.749815           3.524246           0.749815           5.823159           3.227802           3.524246           3.227802          18.812597
hessian_block_lv             1       1          22.738340          -5.020909           4.960603          -5.020909          19.624113           2.513597           4.960603           2.513597           2.972904
hessian_block_lv_atom        1       1          -0.864875          -0.551082          -1.118213           1.808560           1.865320           2.696783           0.577650           0.366777           0.953342
hessian_block_lv_atom        1       2           1.723577           1.793404           2.872331           1.689201           1.446094           2.857538           1.213642           1.057392           1.669481
hessian_block_lv_atom        1       3           2.621093           2.462391           4.091519          -0.399431          -0.263161          -0.715494           1.718434           1.272940           2.514770
hessian_block_lv_atom        1       4           0.225302           0.264008           0.248254          -0.393614          -0.646474          -0.500349           0.007432           0.085253           0.065438
hessian_block_lv_atom        1       5          -1.537809          -1.332803          -1.768214           2.452740           2.623359           3.289018          -0.784485          -1.626832          -1.337516
hessian_block_lv_atom        1       6          -2.244632          -3.083301          -3.903539          -2.210875          -2.472948          -4.001653          -4.943078          -6.072756          -7.421612
hessian_block_lv_atom        1       7           1.443379           1.277595           2.222620          -0.411826          -0.524674          -0.455400           0.478394           1.807848           0.444813
hessian_block_lv_atom        1       8          -1.451458          -1.027753          -2.102128          -0.851945          -0.681016          -1.280599           2.271126           3.188338           3.241739
hessian_block_lv_atom        1       9           0.167464           0.101728          -0.211222          -2.037135          -2.235866          -3.076071           0.824497           2.168162           0.960863
hessian_block_lv_atom        1      10           2.750527           3.217510           4.296467           2.556624           2.413495           4.419763           3.085593           4.103909           5.158570
hessian_block_lv_atom        1      11          -2.025310          -2.108412          -3.368387          -1.303054          -0.652030          -2.125828          -0.647052          -1.343308          -1.086817
hessian_block_lv_atom        1      12          -0.807258          -1.013285          -1.259488          -0.899247          -0.872101          -1.107708          -3.802154          -5.007721          -5.163073
symmetry_n_params 39 3 36
symmetry_params a1 b2 c3 x0 x1 x2 x3 x4 x5 x6 x7 x8 x9 x10 x11 x12 x13 x14 x15 x16 x17 x18 x19 x20 x21 x22 x23 x24 x25 x26 x27 x28 x29 x30 x31 x32 x33 x34 x35
symmetry_lv a1 , 0 , 0 
symmetry_lv 0 , b2 , 0 
symmetry_lv 0 , 0 , c3
symmetry_frac x0 , x1 , x2
symmetry_frac x3 , x4 , x5
symmetry_frac x6 , x7 , x8
symmetry_frac x9 , x10 , x11
symmetry_frac x12 , x13 , x14
symmetry_frac x15 , x16 , x17
symmetry_frac x18 , x19 , x20
symmetry_frac x21 , x22 , x23
symmetry_frac x24 , x25 , x26
symmetry_frac x27 , x28 , x29
symmetry_frac x30 , x31 , x32
symmetry_frac x33 , x34 , x35
