# 
# This is the geometry file that corresponds to the current relaxation step.
# If you do not want this file to be written, set the "write_restart_geometry" flag to .false.
#  aims_uuid : 0F7BF192-B46C-49E8-A50F-3A30AEA924DF                                
# 
lattice_vector      3.28818134      0.00000000      0.00000000
lattice_vector     -1.64409067      2.84764858      0.00000000
lattice_vector      0.00000000      0.00000000    102.74354759
atom_frac       0.00021630      0.00028604      0.50034515 Se
atom_frac       0.33353751      0.66703689      0.48390926 W
atom_frac       0.00000388      0.00019247      0.46747406 Se
# 
# What follows is the current estimated Hessian matrix constructed by the BFGS algorithm.
# This is NOT the true Hessian matrix of the system.
# If you do not want this information here, switch it off using the "hessian_to_restart_geometry" keyword.
# 
trust_radius             0.0457430082
hessian_block                1       1           1.250004          -0.779307           2.987863          -0.779307           1.597262         -24.812149           2.987863         -24.812149        3247.401705
hessian_block                1       2          -1.069081           0.449891           6.136767           0.857701          -1.877872          43.539849           3.787373          -0.162157       -1460.060812
hessian_block                1       3           0.039583           0.219163          -9.124630          -0.188647           0.501116         -18.727700          -6.775235          24.974306       -1567.964989
hessian_block                2       2           2.348854          -1.036789           3.869871          -1.036789           3.745733           0.169481           3.869871           0.169481        3314.264918
hessian_block                2       3          -1.059267           0.068835          -7.657244           0.476645          -1.647355          -0.007323         -10.006638         -43.709330       -1634.828202
hessian_block                3       3           1.240190          -0.398251          16.781873          -0.398251           1.366745          18.735023          16.781873          18.735023        3422.169095
hessian_block_lv             1       1          37.018712           0.739291           0.000000           0.739291           0.031254           0.000000           0.000000           0.000000           0.000000
hessian_block_lv_atom        1       1           0.176509           0.021460           0.000000          -1.574762          -0.099202           0.000000         193.383922           8.374826           0.000000
hessian_block_lv_atom        1       2           1.774297           0.031787           0.000000           2.721343           0.165171           0.000000          13.811956           0.533775           0.000000
hessian_block_lv_atom        1       3          -1.950806          -0.053247           0.000000          -1.146581          -0.065969           0.000000        -207.195878          -8.908601           0.000000
