# 
# This is the geometry file that corresponds to the current relaxation step.
# If you do not want this file to be written, set the "write_restart_geometry" flag to .false.
#  aims_uuid : 595D2C04-179D-480E-A20F-1DCF62A0BE4B                                
# 
lattice_vector      5.85872691      0.00000000      0.00000000
lattice_vector      0.00000000      5.96176912      0.00000000
lattice_vector      0.00000000      0.00000000      7.41218780
atom_frac       0.50225941      0.00190551      0.00172994 Pd
atom_frac       0.00189130      0.00191692      0.50252125 Pd
atom_frac       0.00197655      0.50228546      0.00178600 Pd
atom_frac       0.50234429      0.50229552      0.50246511 Pd
atom_frac       0.61414695      0.11986335      0.40399254 Se
atom_frac       0.89086598      0.88478724      0.90419537 Se
atom_frac       0.11376443      0.38442598      0.60077935 Se
atom_frac       0.39046469      0.62021760      0.10025087 Se
atom_frac       0.39050083      0.88480001      0.60078046 Se
atom_frac       0.11380572      0.11985926      0.10027406 Se
atom_frac       0.89084335      0.62021815      0.40399598 Se
atom_frac       0.61412275      0.38441124      0.90421532 Se
# 
# What follows is the current estimated Hessian matrix constructed by the BFGS algorithm.
# This is NOT the true Hessian matrix of the system.
# If you do not want this information here, switch it off using the "hessian_to_restart_geometry" keyword.
# 
trust_radius             0.0122103965
hessian_block                1       1           5.972287          -0.006009          -2.249678          -0.006009           6.294436          -1.137299          -2.249678          -1.137299           4.732947
hessian_block                1       2          -0.138762           0.472447           0.006993           0.433791           0.369395          -0.009862           0.068930           0.112239           0.087325
hessian_block                1       3          -0.092664           0.615658           0.077102          -0.014476          -0.251520           0.045970          -0.176029           0.147444           0.031593
hessian_block                1       4           0.531988           0.233507          -0.092672           0.339972          -0.333212          -0.018596           0.138429           0.034774           0.053904
hessian_block                1       5           0.002001          -0.484534          -0.139329          -0.465454           0.158269           0.180703          -0.351588           0.204363           0.282568
hessian_block                1       6          -1.741537           0.117519           0.779007           0.345533          -0.422525          -0.190978           1.172981          -0.397437          -0.439660
hessian_block                1       7          -0.448669           0.233875           0.143894          -0.003928           0.280706           0.031575           0.081510          -0.132153          -0.144972
hessian_block                1       8          -0.274212          -0.643146           0.242373          -0.424413          -1.969798           0.720993           0.024457           0.759120          -0.547761
hessian_block                1       9          -0.150738           0.022952           0.177902          -0.409626          -0.329365          -0.083686           0.007278          -0.288915          -0.135415
hessian_block                1      10          -2.279719           0.802541           0.950537           0.206772          -0.202714          -0.294538           0.889985          -0.234250          -0.611019
hessian_block                1      11           0.208746          -0.480093          -0.101285           0.105178          -0.138945          -0.100349          -0.031549           0.299456           0.246495
hessian_block                1      12          -0.022809          -0.884715           0.205157          -0.107338          -1.807703           0.856068           0.425274           0.632658          -0.454141
hessian_block                2       2           6.347024           0.241760           2.377059           0.241760           6.526761           1.368076           2.377059           1.368076           4.706626
hessian_block                2       3           1.116514           0.373565           0.228545          -0.728552          -0.155712          -0.157195           0.208097          -0.091840           0.022260
hessian_block                2       4           0.228678           0.440989           0.095216          -0.885060           0.093816          -0.176018           0.008637           0.205765          -0.021613
hessian_block                2       5          -2.328598           0.359700          -0.919090           0.500596          -0.138688           0.333650          -0.560093           0.009862          -0.567784
hessian_block                2       6          -0.294695          -0.800506          -0.382612          -0.028642          -0.959462          -0.405006          -0.097484          -0.512185          -0.353110
hessian_block                2       7           0.145653          -0.510165          -0.126019           0.024580          -1.980301          -0.780739          -0.404921          -0.880877          -0.380665
hessian_block                2       8          -0.268284          -0.096358           0.029774           0.249466          -0.105742           0.011160          -0.072400          -0.047436           0.115237
hessian_block                2       9          -1.985972           0.223310          -1.010233           0.826925          -0.946212           0.163793          -1.322844           0.204567          -0.386606
hessian_block                2      10           0.364917           0.280286           0.271767           0.150589           0.460725           0.375936           0.042152           0.717988           0.456320
hessian_block                2      11          -0.850459          -0.749201          -0.421237          -0.709717          -1.905138          -0.914192           0.015852          -0.819638          -0.502986
hessian_block                2      12          -0.770105          -0.197171          -0.212101          -0.114393           0.387584           0.068295          -0.201047          -0.144422          -0.073142
hessian_block                3       3           6.551415          -0.627331           2.339390          -0.627331           6.464447          -1.249231           2.339390          -1.249231           4.803238
hessian_block                3       4           0.251636          -0.222282          -0.092403          -0.939471           0.737866          -0.263864          -0.014107          -0.020539          -0.029519
hessian_block                3       5          -0.623692           0.291401          -0.218238           0.138305           0.205566           0.316492           0.269711          -0.008663           0.310747
hessian_block                3       6          -1.001243           0.522294          -0.652443           0.082473          -1.980324           0.748759          -0.848926           0.671148          -0.770213
hessian_block                3       7           0.332028          -0.150554           0.241763           0.385275          -0.454746           0.054280          -0.167975          -0.057982          -0.136212
hessian_block                3       8          -1.958160          -0.393332          -0.771115          -0.374519          -0.594114          -0.378414          -0.860988          -0.228797          -0.500892
hessian_block                3       9          -0.341437           0.329784           0.069563           0.097599          -0.309368           0.007172          -0.463198           0.273918          -0.104362
hessian_block                3      10           0.663891           0.515305           0.273363           0.932377          -1.879581           1.059369           0.256259           0.934180          -0.306396
hessian_block                3      11          -0.743559           0.491239          -0.206160          -0.053086          -0.020092          -0.019965           0.321016          -0.030541           0.252175
hessian_block                3      12          -2.588817          -0.013493          -1.015787          -0.630844          -0.115397          -0.330202          -1.136830          -0.172266          -0.470555
hessian_block                4       4           5.893285          -0.005142          -2.015030          -0.005142           6.909027           1.335404          -2.015030           1.335404           4.802273
hessian_block                4       5          -0.408009           1.157732           0.280883           0.248040          -1.771540          -0.914834          -0.049276          -1.291739          -0.608434
hessian_block                4       6          -0.248691          -0.458292          -0.115176          -0.304095          -0.778809          -0.291559           0.118759          -0.627330          -0.101316
hessian_block                4       7          -1.925939          -0.904411           0.790669          -0.290661          -1.058240           0.222734           0.923888           0.364596          -0.365328
hessian_block                4       8          -0.171425           0.225984           0.042002           0.167340          -0.416398          -0.033256          -0.177594           0.127599           0.074915
hessian_block                4       9          -0.334662           0.463561           0.127324           0.126352          -2.621486          -1.093709           0.200543          -0.329505          -0.369882
hessian_block                4      10          -0.244059           0.121083          -0.048007          -0.175730           0.488073           0.155863           0.208846           0.778746           0.240671
hessian_block                4      11          -1.886863           0.189564           0.813881          -0.518041           0.096964           0.237540           0.854441          -0.018631          -0.512618
hessian_block                4      12          -0.120027           0.694481          -0.009505           0.299723           0.300966           0.161819           0.025280           0.119339          -0.061190
hessian_block                5       5           5.416250          -0.584407          -1.216463          -0.584407           5.770899          -0.992779          -1.216463          -0.992779           7.532476
hessian_block                5       6           0.294103           0.182072          -0.193887           0.043410          -0.096918           0.448444           0.069327          -0.375241           0.369586
hessian_block                5       7          -0.592596           0.848232           0.027280          -1.164131           0.356383           0.385679           0.257743           0.063354          -0.990897
hessian_block                5       8          -0.023286          -0.234639           0.426613           0.205673          -0.337598          -0.495681           0.387214           0.373413          -0.672777
hessian_block                5       9          -1.334389          -0.315372           1.753601          -0.572520          -1.663712           2.118619           1.725248           1.857950          -3.379058
hessian_block                5      10          -0.181000           0.175494           0.358631           0.178036           0.374373          -0.374861           0.259842          -0.152920          -0.730346
hessian_block                5      11           0.823554          -0.698440           0.044199           0.791829          -0.896748          -0.217737          -0.641746          -0.127051           1.066226
hessian_block                5      12           0.521569           0.205572          -0.508727          -0.222187          -0.313264           0.214494           0.154607          -0.562738           0.489557
hessian_block                6       6           4.950103           0.362931           1.636866           0.362931           5.929855           1.771401           1.636866           1.771401           8.203597
hessian_block                6       7           0.382985           0.017936           0.086840           0.475746           0.414567           0.830177           0.602592           0.212088           0.060062
hessian_block                6       8           0.506618           0.508871           0.519954           0.559287           0.434599           0.604004           0.054885          -0.139851          -0.646048
hessian_block                6       9           0.012955           0.165004          -0.004182           0.253813           0.850965           0.296513           0.527850           0.028784          -0.286561
hessian_block                6      10          -1.413490          -1.224165          -2.511641          -1.412603          -2.100923          -2.870938          -2.121514          -2.549577          -3.983610
hessian_block                6      11          -0.159290           0.093151          -0.184775           0.346774           0.572303           0.396312          -0.272068           0.261216           0.399482
hessian_block                6      12           0.278096          -0.062405           0.042280          -0.149030          -0.216303           0.213574           0.136499           0.106280           0.649655
hessian_block                7       7           5.365041           0.945284           0.911334           0.945284           6.608235          -1.129176           0.911334          -1.129176           7.323052
hessian_block                7       8          -0.189807           0.123417          -0.397198          -0.018384           0.058707           0.591363           0.214879          -0.566996           0.789303
hessian_block                7       9           0.451926           0.610638          -0.113847          -0.404632          -0.141236          -0.245047           0.097838          -0.340215           0.909456
hessian_block                7      10          -0.012515          -0.503722          -0.538850           0.244437          -0.531038          -0.195021          -0.500342          -1.036308           0.102482
hessian_block                7      11          -1.887561          -0.144471          -1.578306           0.031101          -2.127030           1.821994          -1.467320           2.191331          -3.369564
hessian_block                7      12          -0.054632          -0.458024           0.424028          -0.332723           0.221015          -0.413139          -0.420814           0.137657          -0.694852
hessian_block                8       8           4.489698          -0.154544          -1.124809          -0.154544           5.572815           1.284381          -1.124809           1.284381           7.126320
hessian_block                8       9           0.361521          -0.405152          -0.216211           0.226519           0.388307          -0.221244          -0.338322           0.249244           0.826976
hessian_block                8      10          -0.390130          -0.497854           0.170351          -0.434490          -0.368406           0.399574          -0.663815          -0.249597           0.501466
hessian_block                8      11           0.291207          -0.206019          -0.137630          -0.242596           0.401768           0.329419           0.351194          -0.578661          -0.808235
hessian_block                8      12          -0.807831           0.899118           1.737844           1.114313          -1.417116          -2.069184           1.683347          -1.725536          -3.156639
hessian_block                9       9           5.010531          -0.464216          -0.718827          -0.464216           6.432339          -1.392880          -0.718827          -1.392880           7.361853
hessian_block                9      10           0.039734           0.266448          -0.413016          -0.278543          -0.205301           0.097836          -0.431063          -0.257356           0.329108
hessian_block                9      11          -0.242785           0.479050           0.023346          -0.504343           0.575639          -0.003368           0.422885           0.183292          -1.002726
hessian_block                9      12           0.079226          -0.425711           0.674106           0.152378          -0.383544          -0.357419          -0.056915           0.524531          -0.660919
hessian_block               10      10           5.340790           0.713345           1.565045           0.713345           6.482509           2.220584           1.565045           2.220584           8.072269
hessian_block               10      11           0.038876          -0.111651           0.437394          -0.343493          -0.598260          -0.061532           0.128353          -0.466686          -0.623909
hessian_block               10      12          -0.361385          -0.012539           0.057209          -0.305267          -0.272430          -0.109958          -0.206530          -0.107121          -0.345170
hessian_block               11      11           5.623943           0.915698           0.812614           0.915698           5.893899          -1.394550           0.812614          -1.394550           7.444055
hessian_block               11      12           0.350103           0.180695          -0.493671           0.221177          -0.207335           0.500460           0.497961          -0.073574           0.513468
hessian_block               12      12           5.062523           0.074192          -0.900832           0.074192           5.470551           1.265193          -0.900832           1.265193           7.365791
hessian_block_lv             1       1          26.699222           0.641384           5.702699           0.641384          29.729659           3.517745           5.702699           3.517745           2.033950
hessian_block_lv_atom        1       1           0.424235           0.656900           0.107413          -0.322424          -0.602214          -0.124427           0.174389          -0.251298           0.003109
hessian_block_lv_atom        1       2          -1.298961          -2.380062          -0.467301           0.432661           0.762360           0.262044          -0.228653          -0.121772          -0.007523
hessian_block_lv_atom        1       3          -1.163195          -1.657692          -0.279755           1.102742           1.840228           0.372064          -0.052766          -0.339653          -0.002428
hessian_block_lv_atom        1       4          -0.011633           0.096965           0.036133           1.894602           3.356997           0.793413           0.129164           0.326724           0.071029
hessian_block_lv_atom        1       5           1.079964           1.663954           0.558142           0.173784          -0.453691           0.124917          -1.529057          -2.485645          -1.358745
hessian_block_lv_atom        1       6          -0.556872          -0.221646          -0.268239          -0.994984          -0.980610          -0.451080          -2.010438          -2.340166          -1.357201
hessian_block_lv_atom        1       7          -1.008021          -1.895334          -0.141688          -2.132870          -3.420386          -0.944666           1.101598           1.732912           1.105037
hessian_block_lv_atom        1       8          -0.110953          -0.587072          -0.494304          -0.568388          -0.855472          -0.031588           1.464209           1.934112           1.271866
hessian_block_lv_atom        1       9          -0.083863           0.080068          -0.235508          -1.360090          -1.468883          -0.568513           1.652925           2.412441           1.280460
hessian_block_lv_atom        1      10           0.052113          -0.077509           0.232637           0.492720           0.410743           0.406493           2.001559           2.857948           1.450846
hessian_block_lv_atom        1      11           1.350581           2.489155           0.263043           0.993951           1.220275           0.325167          -1.364342          -2.479754          -1.338807
hessian_block_lv_atom        1      12           1.326605           1.832272           0.689427           0.288299           0.190654          -0.163824          -1.338587          -1.245848          -1.117642
symmetry_n_params 39 3 36
symmetry_params a1 b2 c3 x0 x1 x2 x3 x4 x5 x6 x7 x8 x9 x10 x11 x12 x13 x14 x15 x16 x17 x18 x19 x20 x21 x22 x23 x24 x25 x26 x27 x28 x29 x30 x31 x32 x33 x34 x35
symmetry_lv a1 , 0 , 0 
symmetry_lv 0 , b2 , 0 
symmetry_lv 0 , 0 , c3
symmetry_frac x0 , x1 , x2
symmetry_frac x3 , x4 , x5
symmetry_frac x6 , x7 , x8
symmetry_frac x9 , x10 , x11
symmetry_frac x12 , x13 , x14
symmetry_frac x15 , x16 , x17
symmetry_frac x18 , x19 , x20
symmetry_frac x21 , x22 , x23
symmetry_frac x24 , x25 , x26
symmetry_frac x27 , x28 , x29
symmetry_frac x30 , x31 , x32
symmetry_frac x33 , x34 , x35
