# 
# This is the geometry file that corresponds to the current relaxation step.
# If you do not want this file to be written, set the "write_restart_geometry" flag to .false.
#  aims_uuid : 28460E4E-F8AE-49E7-A4BC-0E64C342CE56                                
# 
lattice_vector      5.85843658      0.00000000      0.00000000
lattice_vector      0.00000000      5.96077012      0.00000000
lattice_vector      0.00000000      0.00000000      7.43775580
atom_frac       0.50221240      0.00226373      0.00221148 Pd
atom_frac       0.00224600      0.00224181      0.50228166 Pd
atom_frac       0.00230361      0.50225107      0.00218921 Pd
atom_frac       0.50225860      0.50224367      0.50230047 Pd
atom_frac       0.61448352      0.12043466      0.40482624 Se
atom_frac       0.89003071      0.88405881      0.90480775 Se
atom_frac       0.11445463      0.38407989      0.59969733 Se
atom_frac       0.39002888      0.62040033      0.09966171 Se
atom_frac       0.39003497      0.88409303      0.59969242 Se
atom_frac       0.11441273      0.12041945      0.09967630 Se
atom_frac       0.89001628      0.62042482      0.40482553 Se
atom_frac       0.61450391      0.38407498      0.90481617 Se
# 
# What follows is the current estimated Hessian matrix constructed by the BFGS algorithm.
# This is NOT the true Hessian matrix of the system.
# If you do not want this information here, switch it off using the "hessian_to_restart_geometry" keyword.
# 
trust_radius             0.0488415860
hessian_block                1       1           6.086020          -0.114381          -2.211902          -0.114381           6.378689          -1.218403          -2.211902          -1.218403           4.638495
hessian_block                1       2          -0.046171           0.376551           0.046133           0.170881           0.565185          -0.193285          -0.043189           0.218870           0.092811
hessian_block                1       3          -0.369866           0.832393          -0.086077          -0.025119          -0.242273           0.009307          -0.220038           0.135849          -0.093644
hessian_block                1       4           0.489324           0.250952          -0.138369           0.036985          -0.083841          -0.217584           0.050622           0.124712           0.062234
hessian_block                1       5           0.082771          -0.500239          -0.071022          -0.318545           0.041657           0.248361          -0.390170           0.163245           0.145681
hessian_block                1       6          -2.059352           0.483817           0.793666           0.204253          -0.281976          -0.195219           0.944201          -0.162212          -0.526763
hessian_block                1       7          -0.437512           0.229529           0.138049           0.182151           0.098676           0.139323           0.226698          -0.161432           0.113355
hessian_block                1       8           0.055369          -0.904000           0.477011          -0.311492          -2.037573           0.837829          -0.060602           0.866415          -0.526224
hessian_block                1       9          -0.198963           0.049748           0.164695          -0.386366          -0.345556          -0.027160           0.202044          -0.367425           0.127284
hessian_block                1      10          -2.030562           0.479643           0.901149           0.293940          -0.293876          -0.289756           1.031746          -0.372387          -0.566726
hessian_block                1      11           0.105080          -0.399965          -0.149818           0.324562          -0.280213           0.052453           0.048877           0.150498           0.157220
hessian_block                1      12          -0.110225          -0.784045           0.136487          -0.056867          -1.871874           0.854133           0.421712           0.622271          -0.521857
hessian_block                2       2           6.342768          -0.046899           2.178120          -0.046899           7.125947           1.684864           2.178120           1.684864           4.763481
hessian_block                2       3           0.781986           1.021163           0.525343          -0.659707          -0.152936          -0.090744           0.132655          -0.069703           0.099291
hessian_block                2       4           0.133492           0.585765           0.174578          -1.101379           0.853362           0.287759          -0.109018           0.456195           0.041717
hessian_block                2       5          -2.068626           0.137222          -0.982785           0.614263          -0.521648           0.116357          -0.687445          -0.029441          -0.536473
hessian_block                2       6          -0.403859           0.072278          -0.000715          -0.133274          -0.507105          -0.194214          -0.105798           0.043265           0.003443
hessian_block                2       7           0.127954          -0.531142          -0.151180           0.079101          -2.428287          -1.065966          -0.213182          -1.060075          -0.593971
hessian_block                2       8           0.078547          -0.989613          -0.473187           0.307162          -0.249781          -0.121481          -0.142592           0.275030           0.236806
hessian_block                2       9          -2.075433           0.343287          -0.972373           0.841045          -0.971578           0.123226          -1.087909          -0.105612          -0.650452
hessian_block                2      10           0.333455          -0.391114          -0.037110           0.154314           0.176789           0.204198           0.097126           0.393510           0.280871
hessian_block                2      11          -0.911757          -0.456788          -0.236516          -0.385853          -2.431612          -1.164717          -0.022157          -1.148167          -0.615678
hessian_block                2      12          -0.726445           0.084959           0.019013          -0.045326           0.188688           0.001848          -0.085931          -0.246584          -0.019983
hessian_block                3       3           7.233406          -0.595736           2.382711          -0.595736           6.414968          -1.263677           2.382711          -1.263677           4.704193
hessian_block                3       4           0.404318          -0.228408          -0.089229          -0.090150           0.661338          -0.182312           0.230805           0.014009           0.043364
hessian_block                3       5          -0.817641           0.238602          -0.197733          -0.269926           0.235908           0.254213           0.237921           0.013127           0.178251
hessian_block                3       6          -0.078439           0.489096          -0.365563           0.553169          -2.006811           0.886138          -0.202940           0.585418          -0.635455
hessian_block                3       7           0.319214          -0.135364           0.233738          -0.136310          -0.393132          -0.013852          -0.398924          -0.035377           0.022660
hessian_block                3       8          -2.948565          -0.336304          -0.859551          -0.541537          -0.577089          -0.321334          -0.528649          -0.239805          -0.386778
hessian_block                3       9          -0.236601           0.348575           0.081519           0.044075          -0.300112           0.037432          -0.829354           0.290744           0.019242
hessian_block                3      10          -0.061948           0.568795           0.006747           0.620285          -1.827422           0.961480          -0.108467           0.948663          -0.384174
hessian_block                3      11          -0.432274           0.445685          -0.155310          -0.593687          -0.045188          -0.029757          -0.021694          -0.003247           0.070699
hessian_block                3      12          -2.227677          -0.110112          -0.949944          -0.843739          -0.120226          -0.394477          -1.200678          -0.228416          -0.535784
hessian_block                4       4           5.967488           0.202827          -1.953793           0.202827           7.713041           1.661075          -1.953793           1.661075           4.855148
hessian_block                4       5          -0.498855           0.718857           0.193867           0.149803          -2.182829          -1.072487          -0.070475          -1.200867          -0.557439
hessian_block                4       6          -0.083551           0.348592           0.136482          -0.166823          -0.314633          -0.150991           0.229046          -0.185055           0.114449
hessian_block                4       7          -1.912754          -0.897632           0.767100          -0.392300          -1.459553           0.037596           0.892023           0.048875          -0.548806
hessian_block                4       8          -0.476946          -0.820656          -0.313077           0.194867          -0.575205          -0.150754          -0.067289           0.456522           0.153333
hessian_block                4       9          -0.310687           0.648537           0.172084           0.113393          -2.654376          -1.116887           0.140141          -0.794953          -0.589855
hessian_block                4      10          -0.336052          -0.383041          -0.232933          -0.262181           0.263289           0.054351           0.152750           0.462900           0.129990
hessian_block                4      11          -1.805709           0.472503           0.946310          -0.661979          -0.641207           0.019076           0.772430          -0.246152          -0.566768
hessian_block                4      12          -0.004157           0.864558           0.111552           0.214083           0.067640           0.124108          -0.041815          -0.090207          -0.035505
hessian_block                5       5           5.522144          -0.270741          -1.156099          -0.270741           6.098542          -1.112451          -1.156099          -1.112451           7.318825
hessian_block                5       6          -0.231502          -0.285445           0.224541          -0.326301          -0.414272           0.650784          -0.319151          -0.613457           0.552690
hessian_block                5       7          -0.475327           0.978350          -0.067061          -0.955959           0.482594           0.316067           0.310791           0.296928          -0.752691
hessian_block                5       8           0.387699           0.152889           0.442801           0.281466          -0.132435          -0.488119           0.210730           0.258837          -0.534240
hessian_block                5       9          -1.433673          -0.507896           1.793676          -0.654992          -1.764208           2.221497           1.845960           2.176928          -3.175724
hessian_block                5      10           0.252423           0.474792          -0.064779           0.490806           0.571965          -0.549341           0.451904           0.027371          -0.797482
hessian_block                5      11           0.517132          -0.979417           0.189811           1.025685          -0.447664          -0.191635          -0.437408          -0.070341           0.799143
hessian_block                5      12           0.329363           0.261871          -0.452720          -0.184405          -0.320587           0.207134           0.150942          -0.510260           0.461324
hessian_block                6       6           5.561397           0.697913           2.048762           0.697913           6.205601           1.966035           2.048762           1.966035           8.325245
hessian_block                6       7           0.284334          -0.078234           0.063250           0.127004           0.272495           0.648749          -0.139348          -0.153328          -0.278285
hessian_block                6       8          -0.355055          -0.002199          -0.027382           0.072640           0.216298           0.362142           0.147738          -0.044715          -0.513810
hessian_block                6       9           0.278480           0.348953           0.171314           0.244010           0.903390           0.290775          -0.347655          -0.410863          -0.713912
hessian_block                6      10          -1.742511          -1.366360          -2.708926          -1.562633          -2.256750          -2.890767          -2.457514          -2.701780          -4.122438
hessian_block                6      11           0.171190           0.358043          -0.033758          -0.523039           0.056756          -0.185646          -0.183257           0.290922           0.378739
hessian_block                6      12           0.224782          -0.089137          -0.058619          -0.164228          -0.225967           0.140751           0.142863           0.057231           0.517962
hessian_block                7       7           5.499668           0.854135           0.985782           0.854135           6.853157          -0.932652           0.985782          -0.932652           7.094341
hessian_block                7       8          -0.347934           0.733448          -0.100331           0.112318           0.123523           0.586630           0.273115          -0.732202           0.518251
hessian_block                7       9           0.334849           0.559939          -0.203419          -0.532647          -0.039759          -0.339692           0.194921          -0.070089           0.773244
hessian_block                7      10           0.058614          -0.311784           0.114652           0.327634          -0.522756           0.054392          -0.446596          -0.885302           0.290566
hessian_block                7      11          -2.018364          -0.177781          -1.787361           0.132484          -1.739217           1.997826          -1.532709           2.286478          -2.972920
hessian_block                7      12           0.133172          -0.561641           0.312616          -0.459434           0.399279          -0.302096          -0.458407           0.271848          -0.563878
hessian_block                8       8           6.039190          -0.155598          -1.623241          -0.155598           5.730243           1.231383          -1.623241           1.231383           7.195597
hessian_block                8       9           0.275423          -0.531428          -0.185163           0.409729           0.267232          -0.307030           0.112433           0.315435           0.520256
hessian_block                8      10           0.122015          -0.056139           0.192491          -0.195328          -0.207660           0.367834          -0.341129          -0.063492           0.403508
hessian_block                8      11           0.049053          -0.377969          -0.080145           0.542625           0.565001           0.039314           0.718804          -0.450456          -0.767433
hessian_block                8      12          -1.312885           1.005709           1.863605           1.565006          -1.475530          -2.171584           1.986848          -1.737785          -3.197401
hessian_block                9       9           5.110885          -0.373153          -0.847005          -0.373153           6.544096          -1.490474          -0.847005          -1.490474           7.339542
hessian_block                9      10          -0.177865           0.280384           0.332645          -0.435240          -0.273396           0.393337          -0.539815          -0.273843           0.570073
hessian_block                9      11          -0.055211           0.596392          -0.256990          -0.661635           0.524885           0.300793           0.384323           0.286157          -0.585671
hessian_block                9      12           0.054707          -0.581871           0.540770           0.210315          -0.243591          -0.237825          -0.019838           0.595997          -0.532163
hessian_block               10      10           5.463213           0.719442           1.790669           0.719442           6.544202           2.280568           1.790669           2.280568           8.162312
hessian_block               10      11          -0.142935          -0.276466           0.290316           0.335622          -0.227130           0.272693          -0.062088          -0.542593          -0.557158
hessian_block               10      12          -0.171936           0.125428           0.079008          -0.350238          -0.300228          -0.088900          -0.232513          -0.043706          -0.307476
hessian_block               11      11           5.863943           0.533899           0.824659           0.533899           6.394027          -1.093213           0.824659          -1.093213           7.250540
hessian_block               11      12           0.225764          -0.068687          -0.489777           0.261866          -0.081412           0.540111           0.448805          -0.017188           0.511150
hessian_block               12      12           5.151449          -0.147032          -1.111990          -0.147032           5.630831           1.326799          -1.111990           1.326799           7.325474
hessian_block_lv             1       1          19.306007           3.019994           4.753901           3.019994          29.001997           3.851139           4.753901           3.851139           1.932215
hessian_block_lv_atom        1       1           0.367932           0.714047           0.135169          -0.456738          -0.602937          -0.161739          -0.566882          -0.013394          -0.070837
hessian_block_lv_atom        1       2          -0.615473          -2.529164          -0.304038          -0.102478           0.768567           0.091290           0.432839          -0.388246           0.039136
hessian_block_lv_atom        1       3          -1.359936          -1.758542          -0.404334           0.559499           2.013074           0.292291          -0.674296          -0.181744          -0.088572
hessian_block_lv_atom        1       4          -0.281349           0.115071          -0.036551           0.645426           3.556159           0.475969           0.527968           0.155355           0.086086
hessian_block_lv_atom        1       5           0.932657           1.767240           0.585336           0.586739          -0.534894           0.266827          -1.884485          -2.415619          -1.398818
hessian_block_lv_atom        1       6          -0.403868          -0.333517          -0.400442          -1.138652          -0.998714          -0.574072          -2.827059          -2.197121          -1.578419
hessian_block_lv_atom        1       7          -0.945027          -1.979445          -0.119393          -1.342003          -3.550331          -0.761778           2.253611           1.478102           1.293273
hessian_block_lv_atom        1       8           1.208435          -0.676185          -0.143200          -0.114459          -1.027350           0.045452           1.489790           1.865671           1.213765
hessian_block_lv_atom        1       9           0.062098           0.047434          -0.241351          -1.051087          -1.494391          -0.532245           2.724551           2.204340           1.480843
hessian_block_lv_atom        1      10          -0.062091          -0.034204           0.330612           0.879090           0.322864           0.535230           2.133069           2.891472           1.528857
hessian_block_lv_atom        1      11           0.844809           2.637313           0.120044           1.283283           1.249250           0.458506          -1.591606          -2.398189          -1.311871
hessian_block_lv_atom        1      12           0.251814           2.029949           0.478148           0.251382           0.298704          -0.135734          -2.017500          -1.000626          -1.193442
