# 
# This is the geometry file that corresponds to the current relaxation step.
# If you do not want this file to be written, set the "write_restart_geometry" flag to .false.
#  aims_uuid : 9AB04099-B6CD-422F-A0EB-965DE53671D4                                
# 
lattice_vector      5.84457496      0.00000000      0.00000000
lattice_vector      0.00000000      5.95399955      0.00000000
lattice_vector      0.00000000      0.00000000      7.48615963
atom_frac       0.50122090      0.00093365      0.00079864 Pd
atom_frac       0.00092096      0.00093884      0.50140630 Pd
atom_frac       0.00098545      0.50122666      0.00081439 Pd
atom_frac       0.50128712      0.50122861      0.50139079 Pd
atom_frac       0.61292628      0.11900013      0.40360142 Se
atom_frac       0.88987796      0.88351748      0.90377164 Se
atom_frac       0.11263005      0.38323913      0.59903296 Se
atom_frac       0.38956215      0.61930511      0.09859554 Se
atom_frac       0.38958504      0.88352219      0.59903107 Se
atom_frac       0.11265277      0.11899803      0.09860000 Se
atom_frac       0.88985888      0.61929320      0.40360756 Se
atom_frac       0.61291363      0.38321814      0.90377086 Se
# 
# What follows is the current estimated Hessian matrix constructed by the BFGS algorithm.
# This is NOT the true Hessian matrix of the system.
# If you do not want this information here, switch it off using the "hessian_to_restart_geometry" keyword.
# 
trust_radius             0.0122103965
hessian_block                1       1           6.216284          -0.503306          -2.427762          -0.503306           7.385287          -0.688971          -2.427762          -0.688971           4.956574
hessian_block                1       2          -0.671679           1.667708           0.517158          -0.263073           1.752047           0.436565          -0.351483           0.896297           0.316505
hessian_block                1       3          -0.974657           2.450863           0.768248           0.127718          -0.559311          -0.065994          -0.700466           1.263735           0.470553
hessian_block                1       4           0.474438           0.337877          -0.060301           0.264611          -0.329081          -0.148480           0.047697           0.161603           0.048314
hessian_block                1       5           0.404184          -1.362443          -0.515886          -0.930759           1.226693           0.703448          -0.234076           0.004810           0.190757
hessian_block                1       6          -1.100513          -1.367397           0.001508           1.137147          -2.092922          -0.919404           2.539553          -3.284003          -1.727409
hessian_block                1       7          -0.754527           0.932231           0.485272           0.113542           0.108182           0.001892           0.264956          -0.482749          -0.201413
hessian_block                1       8           0.207018          -1.547406          -0.027834          -0.121965          -2.572020           0.518344          -0.401660           1.673777          -0.154455
hessian_block                1       9          -0.165757           0.047404           0.176508           0.129461          -1.480149          -0.547506           0.088306          -0.429726          -0.106238
hessian_block                1      10          -3.040998           2.468023           1.766945          -0.729850           1.699796           0.473161          -0.073503           1.756848           0.292651
hessian_block                1      11           0.715529          -1.621510          -0.606815           0.688641          -1.273619          -0.444971           0.065183           0.165079           0.199959
hessian_block                1      12           0.256589          -1.502044          -0.077041           0.087833          -2.217880           0.681918           1.183255          -1.036699          -1.183934
hessian_block                2       2           7.636607           1.722008           3.186213           1.722008           8.594315           2.639771           3.186213           2.639771           5.491213
hessian_block                2       3           3.070089           2.907203           1.702818          -1.046818          -0.566604          -0.397098           1.405248           1.394334           0.874960
hessian_block                2       4           0.319847           0.623900           0.198528          -0.901450           0.439341           0.134626           0.141197           0.510167           0.200945
hessian_block                2       5          -3.273171          -0.747123          -1.528727           1.670509           1.055811           0.939059          -0.749706          -0.326324          -0.737332
hessian_block                2       6          -1.915862          -2.431797          -1.144360          -1.826040          -3.117798          -1.568085          -3.176810          -4.244043          -2.341469
hessian_block                2       7           0.920757           0.252695           0.266539          -0.161455          -2.351611          -1.035216          -0.769870          -1.473655          -0.786781
hessian_block                2       8          -1.193863          -1.571526          -0.876814          -0.397464          -0.978957          -0.520310           0.925471           1.130189           0.777458
hessian_block                2       9          -1.945734           0.269752          -0.966801          -0.442889          -2.433818          -0.695924          -1.472817          -0.092082          -0.632473
hessian_block                2      10           2.160879           2.278504           1.270611           2.153406           3.095422           1.842666           2.138688           3.345727           1.830090
hessian_block                2      11          -2.098657          -2.107773          -1.155035          -1.890390          -3.663926          -1.995472          -0.112622          -1.104984          -0.669215
hessian_block                2      12          -1.443304          -0.932771          -0.601491          -0.547126          -0.177199          -0.240316          -2.032149          -2.215668          -1.222038
hessian_block                3       3           9.729356          -1.148475           4.243386          -1.148475           6.529975          -1.558399           4.243386          -1.558399           5.953092
hessian_block                3       4           0.435274          -0.249800           0.013747          -0.693229           0.697372          -0.171635           0.306920          -0.073149           0.138598
hessian_block                3       5          -2.074829           0.539112          -1.104569           1.824322          -0.089144           1.373292          -0.085059           0.072847           0.090878
hessian_block                3       6          -3.270352           0.957491          -2.102650          -2.709029          -1.480772          -0.961814          -5.627082           1.548112          -3.716534
hessian_block                3       7           1.446834          -0.339259           0.936362          -0.013168          -0.363073          -0.172080          -0.861095           0.020140          -0.517857
hessian_block                3       8          -3.641248          -0.110579          -1.751813          -1.467807          -0.420685          -1.021654           0.685010          -0.508184           0.450308
hessian_block                3       9          -0.270607           0.313397           0.106605          -1.891836           0.025799          -1.193695          -0.803010           0.291167          -0.271299
hessian_block                3      10           3.316634           0.005930           1.938887           4.193314          -2.449029           3.030727           3.548978           0.311024           1.728915
hessian_block                3      11          -2.607542           0.792591          -1.350488          -2.139167           0.301840          -1.232269           0.036171           0.042444           0.082025
hessian_block                3      12          -3.593041           0.158693          -1.634249          -1.312990           0.020655          -0.750541          -3.915289           0.317091          -2.181774
hessian_block                4       4           5.899228           0.058135          -1.973617           0.058135           7.262664           1.484672          -1.973617           1.484672           4.877611
hessian_block                4       5          -0.479605           1.158478           0.174550           0.318421          -1.935634          -0.862750          -0.061616          -1.382132          -0.667852
hessian_block                4       6          -0.311050          -0.190414          -0.171995          -0.438921          -0.833718          -0.495741          -0.091375          -0.717738          -0.473759
hessian_block                4       7          -1.871624          -1.031775           0.810138          -0.334004          -1.201259           0.137809           0.862685           0.186540          -0.479412
hessian_block                4       8          -0.282878          -0.137318          -0.226447           0.089546          -0.542064          -0.149611          -0.090268           0.138308           0.189972
hessian_block                4       9          -0.319564           0.469011           0.132672          -0.005050          -2.649629          -1.230675           0.153723          -0.468915          -0.442943
hessian_block                4      10          -0.150649          -0.002962           0.094495          -0.011603           0.753493           0.481517           0.339789           0.902030           0.521471
hessian_block                4      11          -1.980800           0.266719           0.723032          -0.660869          -0.273037          -0.049584           0.834644          -0.133368          -0.575477
hessian_block                4      12          -0.166707           0.740194          -0.058642           0.272366           0.258575           0.085743          -0.125939           0.176092          -0.235604
hessian_block                5       5           6.122763          -1.454425          -1.084330          -1.454425           6.876088          -1.105520          -1.084330          -1.105520           7.504430
hessian_block                5       6           1.455530          -1.331004          -0.143675           1.351061          -1.651495           0.639147           2.309728          -3.054627           0.635390
hessian_block                5       7          -1.181524           1.605149          -0.072487          -1.031439           0.277303           0.416847           0.543827          -0.231048          -0.822416
hessian_block                5       8           0.665486          -0.939402           0.613738           0.690318          -0.876800          -0.341821          -0.346159           1.257400          -0.815951
hessian_block                5       9          -1.368943          -0.285095           1.733199           0.379987          -2.769551           2.342844           1.856556           1.733637          -3.229023
hessian_block                5      10          -1.482572           1.795770           0.281127          -1.290040           2.052666          -0.620533          -1.256940           1.639926          -0.849967
hessian_block                5      11           1.753961          -1.854001           0.233223           1.683558          -1.848248           0.067485          -0.553685          -0.179749           1.054069
hessian_block                5      12           1.024628          -0.419486          -0.430338           0.082957          -0.670666           0.232350           1.505632          -2.213069           0.748880
hessian_block                6       6           6.886856           2.346726           5.002221           2.346726           8.243864           5.775024           5.002221           5.775024          14.953466
hessian_block                6       7          -0.666287          -1.012606          -1.763488           0.530622           0.675603           1.216235           1.059957           0.839322           1.208306
hessian_block                6       8           1.370707           1.872349           2.774385           1.296575           1.365648           2.255683          -1.142250          -1.542998          -2.995708
hessian_block                6       9          -0.037345           0.108991          -0.122911           1.808699           2.615085           3.388670           0.776614           0.372498           0.396698
hessian_block                6      10          -3.422784          -3.450925          -6.273169          -3.504288          -4.752972          -7.408160          -4.249752          -5.185827          -8.388895
hessian_block                6      11           1.461302           1.799439           2.825325           1.610238           2.319646           3.424383          -0.299934           0.389983           0.571428
hessian_block                6      12           1.115711           0.821810           1.603624           0.274551           0.356855           1.100462           2.414314           2.657895           4.980350
hessian_block                7       7           5.861249           0.873890           0.758235           0.873890           6.646768          -0.941427           0.758235          -0.941427           7.436856
hessian_block                7       8          -0.669868           0.396595           0.089998          -0.351795           0.228226           0.819760           0.829894          -0.673601           0.444922
hessian_block                7       9           0.465248           0.606065          -0.126439          -1.124777           0.045769           0.145328           0.064496          -0.192649           0.925055
hessian_block                7      10           1.117799          -0.633783          -1.149096           1.367452          -0.918413          -0.994722           0.755406          -1.308019          -0.761206
hessian_block                7      11          -2.636017           0.027053          -1.275810          -0.570480          -1.757200           2.314574          -1.520677           2.224784          -3.212863
hessian_block                7      12          -0.466128          -0.373916           0.602651          -0.600727           0.256729          -0.202063          -1.549688           0.325425          -0.131326
hessian_block                8       8           5.497062           0.479782          -1.862058           0.479782           5.937376           0.748462          -1.862058           0.748462           7.863163
hessian_block                8       9           0.307239          -0.418913          -0.192360           1.249069           1.029667          -1.198199          -0.033027           0.348116           0.649831
hessian_block                8      10          -1.516007          -1.390692           1.512845          -2.130527          -1.500712           1.995802          -2.215031          -1.413642           2.112463
hessian_block                8      11           1.168203           0.378107          -1.125864           1.011484           1.133641          -0.660416           0.532080          -0.448253          -0.902194
hessian_block                8      12          -0.345942           1.214307           1.207398           1.427479          -1.156296          -2.360541           2.982823          -0.795074          -4.517944
hessian_block                9       9           5.006800          -0.487233          -0.718210          -0.487233           7.618882          -1.228040          -0.718210          -1.228040           7.311415
hessian_block                9      10           0.108544          -1.505929          -0.779658          -0.193164          -2.256647          -0.373214          -0.334666          -2.410655          -0.234392
hessian_block                9      11          -0.273159           1.667197           0.119112          -0.558578           1.829101           0.248629           0.411682           0.341959          -0.864293
hessian_block                9      12           0.059188           0.223302           0.747917           0.128362           0.072516          -0.209422          -0.099281           2.285892          -0.400474
hessian_block               10      10           7.502833           3.153135           3.952386           3.153135           9.591781           5.220631           3.952386           5.220631          10.867305
hessian_block               10      11          -1.745169          -2.011356          -1.619583          -1.934232          -2.746357          -2.183482           0.117887          -0.671123          -0.702408
hessian_block               10      12          -1.282602          -0.996481          -0.985775          -0.782837          -0.922003          -0.674562          -2.733257          -2.976755          -3.314160
hessian_block               11      11           6.811386           1.996262           0.936409           1.996262           7.360383          -1.132962           0.936409          -1.132962           7.445603
hessian_block               11      12           0.996875           0.763532          -0.447139           0.667274           0.264800           0.506187           2.296494           1.644084           0.675231
hessian_block               12      12           5.410644           0.302860           0.073085           0.302860           5.560937           1.830786           0.073085           1.830786           9.884656
hessian_block_lv             1       1          26.895624           0.151842           5.520698           0.151842          29.078961           2.971938           5.520698           2.971938           1.841790
hessian_block_lv_atom        1       1           0.193996           0.320159          -0.162071          -0.019599           0.178729           0.421655           0.248746           0.273043           0.287064
hessian_block_lv_atom        1       2          -1.009968          -1.450598           0.153144           1.163175           1.502987           0.957733           0.224543           0.152858           0.341435
hessian_block_lv_atom        1       3          -0.450888          -0.505539           0.634475           0.940882           1.479556           0.126337           0.356877           0.462165           0.575261
hessian_block_lv_atom        1       4           0.053374           0.128458           0.076960           2.248031           2.994672           0.737732           0.310118           0.272613           0.126437
hessian_block_lv_atom        1       5           0.862521           1.068762           0.119462           0.237806           0.344271           0.591453          -1.542348          -2.332925          -1.262163
hessian_block_lv_atom        1       6          -0.464729          -1.080610          -0.750022          -1.315965          -1.880160          -1.079606          -2.485621          -3.635030          -2.288752
hessian_block_lv_atom        1       7          -0.935356          -1.234101           0.252057          -2.253411          -3.139422          -0.858981           0.724841           1.312935           0.733528
hessian_block_lv_atom        1       8          -0.631283          -0.827248          -0.845945          -0.878941          -1.274198          -0.358567           1.696495           2.388728           1.587250
hessian_block_lv_atom        1       9          -0.044682           0.060545          -0.209557          -1.709380          -2.227583          -1.119140           1.325674           2.065978           0.964119
hessian_block_lv_atom        1      10           0.095348           0.681037           0.743239           1.041790           1.313065           1.127639           2.269309           3.547106           1.962373
hessian_block_lv_atom        1      11           1.105498           1.476933          -0.380390           0.309032           0.533529          -0.313225          -1.416713          -2.253909          -1.223053
hessian_block_lv_atom        1      12           1.226168           1.362201           0.368648           0.236580           0.174555          -0.233031          -1.711921          -2.253562          -1.803499
symmetry_n_params 39 3 36
symmetry_params a1 b2 c3 x0 x1 x2 x3 x4 x5 x6 x7 x8 x9 x10 x11 x12 x13 x14 x15 x16 x17 x18 x19 x20 x21 x22 x23 x24 x25 x26 x27 x28 x29 x30 x31 x32 x33 x34 x35
symmetry_lv a1 , 0 , 0 
symmetry_lv 0 , b2 , 0 
symmetry_lv 0 , 0 , c3
symmetry_frac x0 , x1 , x2
symmetry_frac x3 , x4 , x5
symmetry_frac x6 , x7 , x8
symmetry_frac x9 , x10 , x11
symmetry_frac x12 , x13 , x14
symmetry_frac x15 , x16 , x17
symmetry_frac x18 , x19 , x20
symmetry_frac x21 , x22 , x23
symmetry_frac x24 , x25 , x26
symmetry_frac x27 , x28 , x29
symmetry_frac x30 , x31 , x32
symmetry_frac x33 , x34 , x35
