# 
# This is the geometry file that corresponds to the current relaxation step.
# If you do not want this file to be written, set the "write_restart_geometry" flag to .false.
#  aims_uuid : E1B4F899-927D-4E1E-A8B6-E630428F35B8                                
# 
lattice_vector      3.28807178      0.00000000      0.00000000
lattice_vector     -1.64403589      2.84755370      0.00000000
lattice_vector      0.00000000      0.00000000    102.63724807
atom_frac       0.00011059      0.00024294      0.50038737 Se
atom_frac       0.33352500      0.66705430      0.48393339 W
atom_frac       0.00013887      0.00025167      0.46748060 Se
# 
# What follows is the current estimated Hessian matrix constructed by the BFGS algorithm.
# This is NOT the true Hessian matrix of the system.
# If you do not want this information here, switch it off using the "hessian_to_restart_geometry" keyword.
# 
trust_radius             0.0106569062
hessian_block                1       1           1.114350          -0.546244          -9.209926          -0.546244           1.145327           8.747866          -9.209926           8.747866        3809.343613
hessian_block                1       2          -0.968600           0.578729           2.000843           0.557202          -1.174669         -18.360795           9.558822          -9.754025       -3634.475873
hessian_block                1       3           0.074755          -0.142738           7.209083          -0.121211           0.249848           9.612929          -0.348896           1.006158          44.508165
hessian_block                2       2           2.363340          -1.335559          -6.167700          -1.335559           2.622493          21.259261          -6.167700          21.259261        5645.633122
hessian_block                2       3          -1.174235           0.668104          -3.391123           0.646578          -1.227318         -11.505236           4.166857          -2.898466       -1791.781345
hessian_block                3       3           1.319986          -0.635619          -3.817961          -0.635619           1.197976           1.892308          -3.817961           1.892308        1966.649084
hessian_block_lv             1       1          29.836260           0.134545           0.000000           0.134545           0.016993           0.000000           0.000000           0.000000           0.000000
hessian_block_lv_atom        1       1           0.162888          -0.017041           0.000000           0.555795           0.018328           0.000000          24.110050           6.831351           0.000000
hessian_block_lv_atom        1       2           1.408986           0.003170           0.000000          -1.275227          -0.038422           0.000000          27.627502          -3.963918           0.000000
hessian_block_lv_atom        1       3          -1.571875           0.013871           0.000000           0.719432           0.020094           0.000000         -51.737552          -2.867433           0.000000
