# 
# This is the geometry file that corresponds to the current relaxation step.
# If you do not want this file to be written, set the "write_restart_geometry" flag to .false.
#  aims_uuid : 7011A98B-52C7-4871-A5DF-04B08C4E5B7D                                
# 
lattice_vector      3.77943077      0.00000000      0.00000000
lattice_vector     -1.88971538      3.27308306      0.00000000
lattice_vector      0.00000000      0.00000000      4.95959714
atom_frac      -0.00031490     -0.00032829     -0.00025135 Pt
atom_frac       0.33319620      0.66619794      0.25910002 Se
atom_frac       0.66633470      0.33334636      0.74036733 Se
# 
# What follows is the current estimated Hessian matrix constructed by the BFGS algorithm.
# This is NOT the true Hessian matrix of the system.
# If you do not want this information here, switch it off using the "hessian_to_restart_geometry" keyword.
# 
trust_radius             0.1000000015
hessian_block                1       1           9.091349          -0.172380           0.669990          -0.172380           7.131129          -0.448939           0.669990          -0.448939          24.262767
hessian_block                1       2          -3.491211          -0.334090          -0.486837          -0.047236          -2.405838           0.706194           0.261198           0.541666         -10.277021
hessian_block                1       3          -3.737055          -0.425072          -0.183153          -0.711926          -2.862208          -0.257255          -0.931188          -0.092727         -10.912735
hessian_block                2       2           5.358652          -1.360911           0.594530          -1.360911           5.651364          -1.242700           0.594530          -1.242700          15.341028
hessian_block                2       3          -0.004358           0.476606          -0.855728           0.763460          -1.382443           0.701035          -0.107693           0.536507          -1.990996
hessian_block                3       3           5.604496          -0.983075           1.038881          -0.983075           6.107734          -0.443780           1.038881          -0.443780          15.976742
hessian_block_lv             1       1          35.200382           5.781923           0.000000           5.781923           1.998069           0.000000           0.000000           0.000000           0.000000
hessian_block_lv_atom        1       1           0.549133           0.284802           0.000000           0.296789           0.175751           0.000000           0.414781           0.116752           0.000000
hessian_block_lv_atom        1       2           1.479571           0.197717           0.000000           2.236974           0.207381           0.000000           3.074662           2.590732           0.000000
hessian_block_lv_atom        1       3          -2.028705          -0.482518           0.000000          -2.533763          -0.383132           0.000000          -3.489443          -2.707484           0.000000
