# 
# This is the geometry file that corresponds to the current relaxation step.
# If you do not want this file to be written, set the "write_restart_geometry" flag to .false.
#  aims_uuid : 506CC26A-6411-4884-A94F-342A5FE7E760                                
# 
lattice_vector      3.28796803      0.00000000      0.00000000
lattice_vector     -1.64398401      2.84746384      0.00000000
lattice_vector      0.00000000      0.00000000     13.22926291
atom_frac       0.32985418      0.66524360      0.25307180 W
atom_frac       0.67637215      0.34097668      0.75316379 W
atom_frac       0.34290648      0.67426161      0.88073438 Se
atom_frac       0.66326424      0.33201774      0.38064246 Se
atom_frac       0.66338002      0.33193534      0.12548712 Se
atom_frac       0.34290781      0.67424992      0.62558534 Se
# 
# What follows is the current estimated Hessian matrix constructed by the BFGS algorithm.
# This is NOT the true Hessian matrix of the system.
# If you do not want this information here, switch it off using the "hessian_to_restart_geometry" keyword.
# 
trust_radius             0.0157026430
hessian_block                1       1         476.707304         163.382579          35.122225         163.382579          72.900521          19.309512          35.122225          19.309512         317.223439
hessian_block                1       2        -464.127210        -169.277126         -31.311424        -171.867175         -65.890705         -19.417493          18.194027           8.860315          13.964804
hessian_block                1       3          -3.078386          -2.037456          -4.511523           7.713404           4.171317           3.664202          18.447839           7.051334         -10.079997
hessian_block                1       4          -2.167460           5.016116           3.690077          -4.206147          -7.430456          -4.497315          10.734792          -0.450257        -133.932587
hessian_block                1       5          -3.273755           4.566843           1.757795          -3.196929          -7.047772          -2.603484         -57.428724         -22.679844        -169.491835
hessian_block                1       6          -3.201261          -2.080573          -4.747150           7.744652           4.156328           3.544579         -25.070159         -12.091060          -3.235834
hessian_block                2       2         473.054826         167.679416         -16.184801         167.679416          78.971053         -10.715817         -16.184801         -10.715817         272.688945
hessian_block                2       3          -1.488301           4.849113          -3.815251          -6.044122          -9.571754           1.794844         -28.262057          -8.262306        -124.896899
hessian_block                2       4          -2.789316          -2.721934           2.851572           6.764960           3.146246          -0.878465         -15.053360          -6.421080           0.091415
hessian_block                2       5          -2.374506          -3.263726           2.834314           6.472183           3.765437          -0.821660          57.424361          31.038476         -15.282208
hessian_block                2       6          -1.416261           4.894689          -3.879860          -6.024928          -9.561045           1.760783          33.387282          13.778220        -132.118068
hessian_block                3       3           3.671059          -2.348927           4.022429          -2.348927           4.328750           0.593195           4.022429           0.593195         130.978881
hessian_block                3       4          -0.300435           0.743980           0.567376           0.419043          -0.279625           0.346048           2.107707           1.089050          14.605651
hessian_block                3       5          -0.219751           1.154032           1.069340           0.341197          -0.704719          -0.351981           2.958431          -5.510505          -1.464955
hessian_block                3       6           2.275046          -1.647983           4.155074          -1.652586           2.915263           0.623709          -0.761793          -1.630787           5.305308
hessian_block                4       4           4.028592          -2.552386          -0.908707          -2.552386           3.821083           3.218969          -0.908707           3.218969         127.252750
hessian_block                4       5           2.393594          -1.293996           0.813036          -1.663882           1.894474           1.385643          -3.027606           1.270388          14.824432
hessian_block                4       6          -0.305743           0.438910           2.306533           0.748489          -0.292490           1.177675          -3.172711           0.540374          -8.393671
hessian_block                5       5           4.521803          -2.708090          -2.942083          -2.708090           3.629443           1.350012          -2.942083           1.350012         174.542610
hessian_block                5       6          -0.188154           0.325906           3.015621           1.115321          -0.677630          -5.468528          -3.532401           1.041471          11.319945
hessian_block                6       6           3.695605          -2.360565          -0.850218          -2.360565           4.318805          -1.638218          -0.850218          -1.638218         141.570310
hessian_block_lv             1       1          53.586589           3.812204           0.000000           3.812204           1.397291           0.000000           0.000000           0.000000           0.000000
hessian_block_lv_atom        1       1           1.994387           2.034212           0.000000           1.315364           0.627042           0.000000           1.944281           0.541594           0.000000
hessian_block_lv_atom        1       2          -4.618411          -2.938158           0.000000          -3.823649          -1.228745           0.000000           6.704560           0.251596           0.000000
hessian_block_lv_atom        1       3           0.260219           0.251804           0.000000           1.428056           0.222315           0.000000          15.628682           6.575628           0.000000
hessian_block_lv_atom        1       4           0.760165           0.202320           0.000000           0.098058           0.081044           0.000000          16.666085           6.481729           0.000000
hessian_block_lv_atom        1       5           1.267886           0.185618           0.000000          -0.468087           0.062043           0.000000         -16.952322          -6.728410           0.000000
hessian_block_lv_atom        1       6           0.335754           0.264203           0.000000           1.450258           0.236302           0.000000         -23.991286          -7.122138           0.000000
