# 
# This is the geometry file that corresponds to the current relaxation step.
# If you do not want this file to be written, set the "write_restart_geometry" flag to .false.
#  aims_uuid : 6833698B-C0DB-4960-A25F-8259DA2B1C7B                                
# 
lattice_vector      5.84470778      0.00000000      0.00000000
lattice_vector      0.00000000      5.95274079      0.00000000
lattice_vector      0.00000000      0.00000000      7.47848143
atom_frac       0.50169204      0.00161730      0.00153384 Pd
atom_frac       0.00159337      0.00164373      0.50183504 Pd
atom_frac       0.00167174      0.50169982      0.00154103 Pd
atom_frac       0.50175267      0.50173097      0.50182258 Pd
atom_frac       0.61337008      0.11966299      0.40392175 Se
atom_frac       0.89015852      0.88374551      0.90392497 Se
atom_frac       0.11331766      0.38370169      0.59960074 Se
atom_frac       0.39000554      0.61975721      0.09939124 Se
atom_frac       0.39006109      0.88382938      0.59958953 Se
atom_frac       0.11332184      0.11969328      0.09945251 Se
atom_frac       0.89016829      0.61975936      0.40391618 Se
atom_frac       0.61339993      0.38367153      0.90398337 Se
# 
# What follows is the current estimated Hessian matrix constructed by the BFGS algorithm.
# This is NOT the true Hessian matrix of the system.
# If you do not want this information here, switch it off using the "hessian_to_restart_geometry" keyword.
# 
trust_radius             0.0122015458
hessian_block                1       1           5.953413           0.094231          -2.168182           0.094231           6.223955          -1.151576          -2.168182          -1.151576           4.766961
hessian_block                1       2           0.061599           0.440281           0.063769           0.465629           0.340975          -0.014110           0.043068           0.073336           0.039582
hessian_block                1       3           0.116989           0.517915           0.046805          -0.172778          -0.230389           0.008460          -0.073171           0.094902          -0.000887
hessian_block                1       4           0.566575           0.295451          -0.031266           0.112720          -0.292079          -0.083501           0.079656           0.031457           0.048671
hessian_block                1       5          -0.221967          -0.540727          -0.225030          -0.506799          -0.010878           0.197874          -0.161916           0.213779           0.283043
hessian_block                1       6          -1.741984           0.156754           0.729905           0.356473          -0.279766          -0.176593           1.255656          -0.251007          -0.282807
hessian_block                1       7          -0.453091           0.026815           0.220578           0.259864           0.305366           0.208611          -0.117976          -0.172313          -0.155672
hessian_block                1       8          -0.164658          -0.525952           0.313784          -0.532375          -1.935318           0.784660          -0.089100           0.686650          -0.588378
hessian_block                1       9          -0.102106           0.077383           0.190600          -0.305414          -0.251844          -0.140296          -0.243927          -0.323148          -0.157980
hessian_block                1      10          -2.328901           0.683371           0.907828           0.196255          -0.404225          -0.359979           0.805471          -0.305025          -0.730351
hessian_block                1      11           0.153087          -0.303709          -0.226673          -0.028325          -0.084989          -0.168628           0.177887           0.367789           0.311334
hessian_block                1      12          -0.273045          -0.921816           0.177881           0.060518          -1.733784           0.895079           0.492535           0.735158          -0.431651
hessian_block                2       2           6.106252           0.189255           2.212313           0.189255           6.946966           1.563355           2.212313           1.563355           4.830354
hessian_block                2       3           0.838056           0.581364           0.258845          -0.414523          -0.352008          -0.123871           0.180699           0.052818           0.088917
hessian_block                2       4           0.286075           0.559249           0.091749          -0.610877           0.428322           0.158330          -0.049488           0.337911           0.059927
hessian_block                2       5          -2.245228           0.223262          -0.836386           0.315476          -0.588860           0.080988          -0.464855           0.093158          -0.561310
hessian_block                2       6          -0.690389          -0.256338          -0.160641           0.036327          -0.937400          -0.389576          -0.237526          -0.234739          -0.443791
hessian_block                2       7          -0.314889          -0.723635          -0.384595          -0.418069          -1.922329          -1.080533          -0.480578          -1.194204          -0.473020
hessian_block                2       8          -0.037366          -0.431958          -0.190775           0.185705          -0.497272          -0.201883          -0.118302          -0.272720           0.082869
hessian_block                2       9          -1.925092           0.314164          -0.973526           0.780672          -0.872502           0.212213          -1.327871          -0.194524          -0.477624
hessian_block                2      10           0.554917          -0.228537           0.134797          -0.217500           0.610626           0.448253           0.216968           0.536160           0.543992
hessian_block                2      11          -0.348306          -0.548174          -0.106969          -0.247171          -2.357604          -0.945314           0.170126          -0.786985          -0.577287
hessian_block                2      12          -0.719716          -0.144279          -0.087880          -0.039578           0.848110           0.204705          -0.165257           0.113880          -0.010743
hessian_block                3       3           6.376869          -0.438312           2.321403          -0.438312           6.183913          -1.267470           2.321403          -1.267470           4.764161
hessian_block                3       4           0.368605          -0.273915          -0.001865          -0.428600           0.221813          -0.100147           0.074248          -0.064044           0.061298
hessian_block                3       5          -0.556295           0.102433          -0.257919          -0.316537           0.393120           0.155028           0.335751          -0.008962           0.287451
hessian_block                3       6          -0.969140           0.787579          -0.526597           0.177804          -1.795462           0.810483          -0.745784           0.920594          -0.551616
hessian_block                3       7          -0.205381           0.215603           0.172150           0.002462           0.097479           0.126063          -0.396615           0.063482          -0.213443
hessian_block                3       8          -1.950381          -0.353853          -0.811226          -0.577148          -0.331575          -0.380979          -1.029697          -0.217700          -0.557635
hessian_block                3       9          -0.266794           0.347739           0.107029           0.094967          -0.105661          -0.047505          -0.656948           0.307575          -0.182813
hessian_block                3      10           0.483640           0.403612           0.075906           0.684555          -1.868380           0.983854           0.282770           0.636778          -0.463730
hessian_block                3      11          -0.181375           0.024098          -0.198644           0.071536          -0.252981          -0.185608           0.422829          -0.049521           0.281650
hessian_block                3      12          -2.488882          -0.227683          -0.987767          -0.370007          -0.312843          -0.241436          -0.913609          -0.205322          -0.411488
hessian_block                4       4           5.945389           0.012961          -2.027045           0.012961           6.774841           1.482435          -2.027045           1.482435           4.828384
hessian_block                4       5          -0.540891           0.893519           0.283692           0.091031          -1.915622          -1.042417           0.099224          -1.275946          -0.585957
hessian_block                4       6          -0.213496           0.420758           0.063517          -0.233652          -0.735830          -0.338863           0.251189          -0.220444          -0.202217
hessian_block                4       7          -2.047726          -0.551329           0.673063          -0.221868          -0.462692           0.081889           0.716791           0.202501          -0.448936
hessian_block                4       8          -0.123032          -0.254349          -0.140287           0.028720          -0.603653          -0.226847          -0.266309          -0.016415           0.025077
hessian_block                4       9          -0.266035           0.521394           0.144460           0.160498          -2.440476          -1.034024          -0.042165          -0.664675          -0.470785
hessian_block                4      10          -0.354935          -0.462625          -0.134222          -0.300542           0.917072           0.318398           0.105577           0.373614           0.334652
hessian_block                4      11          -1.809074          -0.248064           0.987100          -0.600631          -0.756549           0.160514           1.013101          -0.127970          -0.561445
hessian_block                4      12          -0.245544           0.594490           0.045308           0.482693           0.511876           0.293591           0.091019           0.272221           0.013195
hessian_block                5       5           5.537114          -0.363385          -1.560889          -0.363385           6.110606          -1.262212          -1.560889          -1.262212           7.598872
hessian_block                5       6           0.607043           0.101803          -0.438107          -0.092067           0.050629           0.467419          -0.096251          -0.448393           0.125852
hessian_block                5       7          -0.106998           1.072352          -0.455239          -0.909117           0.304046           0.393546           0.639740           0.590230          -1.137069
hessian_block                5       8          -0.283879          -0.037469           0.727182           0.374459           0.030787          -0.582174           0.603459           0.676008          -0.770212
hessian_block                5       9          -1.503840          -0.280060           1.915677          -0.430238          -1.722835           2.226572           2.058459           2.441698          -3.502178
hessian_block                5      10          -0.191114           0.331464           0.417623           0.623456           0.192670          -0.540289           0.435695          -0.147274          -0.428216
hessian_block                5      11           0.435244          -0.844334           0.465157           0.562560          -0.530173          -0.155838          -1.103662          -0.421741           1.268555
hessian_block                5      12           0.636723           0.436459          -0.879609          -0.444155          -0.666463           0.430947           0.059093          -0.819789           0.523033
hessian_block                6       6           5.149838           0.041872           1.501391           0.041872           6.020765           1.759757           1.501391           1.759757           8.003929
hessian_block                6       7           0.246444           0.014409          -0.197196          -0.052626           0.374340           0.723863           0.458512           0.102891          -0.033642
hessian_block                6       8          -0.037221           0.580686           0.461634           0.136385           0.563701           0.316818           0.170688          -0.045270          -0.352935
hessian_block                6       9           0.026966           0.260079           0.213794          -0.210885           0.695690           0.042593           0.539245          -0.012519          -0.245171
hessian_block                6      10          -1.571260          -0.937003          -2.501849          -1.045901          -2.356624          -3.048704          -1.930903          -2.542168          -3.646953
hessian_block                6      11           0.026449          -0.003081           0.062519          -0.012462           0.571417           0.147581          -0.532600           0.365039           0.282060
hessian_block                6      12           0.732659          -0.201849           0.032422          -0.066938          -0.524436           0.292084           0.125590          -0.000599           0.449156
hessian_block                7       7           5.516112           0.445958           1.462990           0.445958           5.902955          -1.247127           1.462990          -1.247127           7.662038
hessian_block                7       8          -0.374125           0.311360          -0.500820           0.148709          -0.148836           0.911852           0.718368          -0.409949           1.005189
hessian_block                7       9           0.331568           0.666273          -0.320300          -0.648335          -0.527473          -0.402235           0.762777          -0.279774           1.295897
hessian_block                7      10           0.184121          -0.343793          -0.202785           0.191087          -0.950417          -0.010917          -0.192287          -0.846508           0.074261
hessian_block                7      11          -1.819468           0.427993          -2.028760           0.410747          -1.626581           2.048345          -2.020579           2.292374          -3.612152
hessian_block                7      12           0.609343          -0.168441           0.769802          -0.602384           0.301165          -0.892506          -0.760029           0.037546          -0.861588
hessian_block                8       8           5.050995          -0.013654          -1.261341          -0.013654           5.890054           1.580720          -1.261341           1.580720           7.176646
hessian_block                8       9           0.460934          -0.424317          -0.305348           0.311133           0.362572          -0.287658          -0.398144           0.636778           1.026236
hessian_block                8      10          -0.087840           0.007147           0.216288          -0.748672          -0.633361           0.404175          -0.684637          -0.098187           0.174232
hessian_block                8      11           0.351347          -0.326410          -0.642257           0.112587           0.861732           0.303306           0.816683          -0.700026          -0.963402
hessian_block                8      12          -1.238862           0.992779           2.003551           1.050138          -1.911808          -2.401148           1.667946          -2.040735          -3.155823
hessian_block                9       9           5.172201          -0.595779          -0.890539          -0.595779           6.354423          -1.473737          -0.890539          -1.473737           7.752397
hessian_block                9      10          -0.064441           0.584709          -0.179636          -0.422193          -0.257053           0.276473          -0.697461           0.001643           0.139899
hessian_block                9      11          -0.246373           0.727890          -0.562994          -0.609587           0.861596           0.166562           0.662991           0.345931          -1.253593
hessian_block                9      12          -0.051076          -0.469219           0.941744           0.144904          -0.449411          -0.880709          -0.047378           0.556505          -0.822425
hessian_block               10      10           5.567610           0.438044           1.452577           0.438044           6.913116           2.381872           1.452577           2.381872           7.648972
hessian_block               10      11          -0.136368           0.145725           0.144279           0.127600          -0.540347           0.067614           0.136081          -0.793391          -0.444500
hessian_block               10      12          -0.489519           0.455683           0.061952          -0.603989           0.023947          -0.058519          -0.322607          -0.059745          -0.100392
hessian_block               11      11           5.365108           0.474987           1.274398           0.474987           6.056137          -1.280380           1.274398          -1.280380           7.788445
hessian_block               11      12          -0.224359          -0.261841          -1.017255           0.473079          -0.554634           0.788883           0.832847          -0.158153           0.582200
hessian_block               12      12           5.318188          -0.084280          -1.060149          -0.084280           6.115305           1.569031          -1.060149           1.569031           7.328389
hessian_block_lv             1       1          21.718759          -6.202792           3.521086          -6.202792          18.889304           1.348023           3.521086           1.348023           1.876051
hessian_block_lv_atom        1       1          -0.219687           0.095044          -0.162666          -0.231266          -0.021903          -0.180121          -0.356016          -0.300239          -0.166562
hessian_block_lv_atom        1       2          -0.278207          -0.173574          -0.171861           0.089305          -0.169798           0.105323           0.452255           0.002526           0.197147
hessian_block_lv_atom        1       3          -0.285359          -0.313633          -0.066375           0.079659           0.185406          -0.000664          -0.263363          -0.531041          -0.067918
hessian_block_lv_atom        1       4          -0.199009          -0.050364          -0.133674           0.461695           0.018888           0.314735           0.385679           0.237102           0.137407
hessian_block_lv_atom        1       5           0.618751           0.354438           0.700868           0.449678           0.512674           0.298297          -0.900206          -1.886176          -1.208843
hessian_block_lv_atom        1       6           0.501071          -0.145079          -0.047289          -0.279073          -0.409451          -0.537599          -0.841596          -1.592187          -1.130939
hessian_block_lv_atom        1       7           0.177475           0.078857           0.525129          -0.617145          -0.461683          -0.678129           0.999386           2.279344           1.133724
hessian_block_lv_atom        1       8          -0.481435           0.142869          -0.841752           0.226055           0.570286           0.346697           0.706913           1.803533           0.928877
hessian_block_lv_atom        1       9          -0.143726          -0.024631          -0.537522          -0.479473          -0.543578          -0.255442           1.137382           2.303551           1.136452
hessian_block_lv_atom        1      10          -0.224232           0.077082           0.384179           0.672039           0.201319           0.908107           0.489306           1.479359           1.173600
hessian_block_lv_atom        1      11          -0.176492          -0.185459          -0.380321           0.074249           0.657263           0.201464          -0.954429          -1.856926          -1.395922
hessian_block_lv_atom        1      12           0.710847           0.144447           0.731283          -0.445724          -0.539425          -0.522666          -0.855310          -1.938846          -0.737024
symmetry_n_params 39 3 36
symmetry_params a1 b2 c3 x0 x1 x2 x3 x4 x5 x6 x7 x8 x9 x10 x11 x12 x13 x14 x15 x16 x17 x18 x19 x20 x21 x22 x23 x24 x25 x26 x27 x28 x29 x30 x31 x32 x33 x34 x35
symmetry_lv a1 , 0 , 0 
symmetry_lv 0 , b2 , 0 
symmetry_lv 0 , 0 , c3
symmetry_frac x0 , x1 , x2
symmetry_frac x3 , x4 , x5
symmetry_frac x6 , x7 , x8
symmetry_frac x9 , x10 , x11
symmetry_frac x12 , x13 , x14
symmetry_frac x15 , x16 , x17
symmetry_frac x18 , x19 , x20
symmetry_frac x21 , x22 , x23
symmetry_frac x24 , x25 , x26
symmetry_frac x27 , x28 , x29
symmetry_frac x30 , x31 , x32
symmetry_frac x33 , x34 , x35
