# 
# This is the geometry file that corresponds to the current relaxation step.
# If you do not want this file to be written, set the "write_restart_geometry" flag to .false.
#  aims_uuid : 807A9D90-49E5-4339-AAD4-20D8B9621796                                
# 
lattice_vector      5.84063067      0.00000000      0.00000000
lattice_vector      0.00000000      5.95153013      0.00000000
lattice_vector      0.00000000      0.00000000      7.52963931
atom_frac       0.50175378      0.00168044      0.00166967 Pd
atom_frac       0.00171626      0.00175131      0.50177909 Pd
atom_frac       0.00169165      0.50166783      0.00163716 Pd
atom_frac       0.50177655      0.50169994      0.50181511 Pd
atom_frac       0.61368053      0.12016530      0.40512059 Se
atom_frac       0.88964925      0.88334161      0.90496263 Se
atom_frac       0.11373662      0.38332028      0.59841738 Se
atom_frac       0.38965609      0.62015162      0.09834570 Se
atom_frac       0.38965544      0.88320985      0.59842498 Se
atom_frac       0.11381366      0.12006787      0.09828711 Se
atom_frac       0.88969165      0.62016977      0.40512436 Se
atom_frac       0.61369131      0.38328695      0.90492900 Se
# 
# What follows is the current estimated Hessian matrix constructed by the BFGS algorithm.
# This is NOT the true Hessian matrix of the system.
# If you do not want this information here, switch it off using the "hessian_to_restart_geometry" keyword.
# 
trust_radius             0.0488061832
hessian_block                1       1           5.980135           0.056301          -2.170949           0.056301           6.287849          -1.143981          -2.170949          -1.143981           4.753885
hessian_block                1       2           0.052639           0.468404           0.052935           0.497289           0.306196          -0.047318           0.060262           0.055792           0.029847
hessian_block                1       3           0.105841           0.546193           0.027606          -0.185527          -0.215829           0.022123          -0.062271           0.089873          -0.026618
hessian_block                1       4           0.594876           0.261245          -0.042137           0.168333          -0.374593          -0.110650           0.084194           0.023067           0.051017
hessian_block                1       5          -0.153335          -0.596472          -0.255029          -0.475296           0.011442           0.177443          -0.173981           0.293947           0.241783
hessian_block                1       6          -1.773094           0.137063           0.771982           0.319102          -0.271337          -0.137087           1.265553          -0.217260          -0.298991
hessian_block                1       7          -0.449341           0.074767           0.200417           0.196999           0.363256           0.249668          -0.178073          -0.159989          -0.068949
hessian_block                1       8          -0.262514          -0.432275           0.386765          -0.487892          -1.961383           0.770932          -0.141980           0.712535          -0.525804
hessian_block                1       9          -0.181046           0.141910           0.240555          -0.369405          -0.229504          -0.107132          -0.269886          -0.346835          -0.086354
hessian_block                1      10          -2.291603           0.687934           0.850924           0.273005          -0.468822          -0.428308           0.817764          -0.383846          -0.721555
hessian_block                1      11           0.139962          -0.354366          -0.204811          -0.021017          -0.069384          -0.161486           0.203053           0.410288           0.259201
hessian_block                1      12          -0.196610          -0.990707           0.141741           0.028108          -1.730867           0.915797           0.566317           0.666412          -0.505597
hessian_block                2       2           6.111821           0.153246           2.203674           0.153246           6.914876           1.564237           2.203674           1.564237           4.836517
hessian_block                2       3           0.830730           0.522046           0.240975          -0.399142          -0.338503          -0.123939           0.158824           0.009745           0.081531
hessian_block                2       4           0.273589           0.575234           0.106467          -0.659372           0.443124           0.176083          -0.050479           0.347791           0.062653
hessian_block                2       5          -2.253997           0.248375          -0.800465           0.355149          -0.586992           0.110558          -0.448563          -0.024147          -0.587112
hessian_block                2       6          -0.699325          -0.203361          -0.169575           0.046080          -0.897718          -0.398322          -0.210504          -0.259919          -0.437122
hessian_block                2       7          -0.285023          -0.765188          -0.382414          -0.386671          -1.913568          -1.101322          -0.438581          -1.076941          -0.470591
hessian_block                2       8           0.025256          -0.399141          -0.217068           0.198006          -0.465788          -0.169970          -0.080248          -0.196408           0.083241
hessian_block                2       9          -1.896795           0.319460          -1.004745           0.762222          -0.889596           0.169580          -1.297137          -0.060704          -0.455865
hessian_block                2      10           0.537749          -0.308424           0.134366          -0.270633           0.559423           0.463321           0.162364           0.575607           0.543965
hessian_block                2      11          -0.391261          -0.517578          -0.120322          -0.214609          -2.333447          -0.930143           0.182724          -0.872640          -0.576909
hessian_block                2      12          -0.739470          -0.121958          -0.051154          -0.052684           0.849017           0.184129          -0.235012           0.040697          -0.008289
hessian_block                3       3           6.353753          -0.413696           2.280762          -0.413696           6.178259          -1.249473           2.280762          -1.249473           4.723735
hessian_block                3       4           0.346800          -0.279988          -0.003903          -0.491149           0.215682          -0.120796           0.074964          -0.068251           0.067102
hessian_block                3       5          -0.604461           0.094159          -0.266137          -0.321876           0.395827           0.152865           0.297916           0.041103           0.212542
hessian_block                3       6          -0.922760           0.763101          -0.479087           0.232157          -1.813580           0.854636          -0.752235           0.932909          -0.566526
hessian_block                3       7          -0.213381           0.234885           0.147907           0.073515           0.092547           0.161846          -0.270339           0.012651          -0.097711
hessian_block                3       8          -1.823514          -0.369241          -0.737964          -0.592224          -0.342495          -0.371713          -0.931371          -0.250542          -0.476324
hessian_block                3       9          -0.185713           0.343345           0.145826           0.130065          -0.102247          -0.039874          -0.556545           0.250885          -0.071154
hessian_block                3      10           0.406319           0.438605           0.001035           0.570799          -1.845583           0.907052           0.264111           0.618094          -0.453077
hessian_block                3      11          -0.177397           0.008385          -0.181473           0.093743          -0.261708          -0.162454           0.367550          -0.011228           0.213914
hessian_block                3      12          -2.550305          -0.234887          -1.003522          -0.349572          -0.315343          -0.231705          -1.043396          -0.174333          -0.505548
hessian_block                4       4           5.971878           0.055693          -2.021201           0.055693           6.863615           1.496559          -2.021201           1.496559           4.827805
hessian_block                4       5          -0.471328           0.963669           0.290271           0.134356          -1.934921          -1.044451           0.076301          -1.421755          -0.593778
hessian_block                4       6          -0.239775           0.469974           0.062390          -0.262472          -0.721455          -0.343367           0.266039          -0.266918          -0.207830
hessian_block                4       7          -2.040613          -0.621318           0.667208          -0.273977          -0.514490           0.071600           0.686072           0.258672          -0.461282
hessian_block                4       8          -0.197005          -0.326776          -0.160073           0.081236          -0.558785          -0.224825          -0.297364           0.002394           0.016968
hessian_block                4       9          -0.335453           0.460822           0.132455           0.089020          -2.473658          -1.038452          -0.040371          -0.563689          -0.475669
hessian_block                4      10          -0.334134          -0.513276          -0.128334          -0.247360           0.950284           0.334724           0.106373           0.471957           0.347806
hessian_block                4      11          -1.830904          -0.182238           0.993602          -0.579612          -0.756457           0.153164           1.030109          -0.218364          -0.562358
hessian_block                4      12          -0.172019           0.675636           0.055004           0.446618           0.508678           0.292440           0.133615           0.296511           0.029432
hessian_block                5       5           5.744573          -0.143054          -1.564984          -0.143054           6.455012          -1.087734          -1.564984          -1.087734           7.610098
hessian_block                5       6           0.470242          -0.151275          -0.476976          -0.199030          -0.115775           0.495377           0.001990          -0.239483           0.214207
hessian_block                5       7          -0.017037           1.293203          -0.356301          -1.044051           0.177768           0.486584           0.526194           0.383006          -0.991006
hessian_block                5       8          -0.467473          -0.194311           0.916201           0.557313           0.247466          -0.510528           0.523433           0.544768          -0.621928
hessian_block                5       9          -1.705886          -0.490834           1.983919          -0.706381          -2.081498           2.113842           2.043910           2.313140          -3.363038
hessian_block                5      10          -0.098036           0.514104           0.357159           0.760768           0.329764          -0.706307           0.345542          -0.415420          -0.600667
hessian_block                5      11           0.276841          -1.160835           0.306846           0.657475          -0.372407          -0.044709          -0.978192          -0.135186           1.307582
hessian_block                5      12           0.845810           0.640670          -0.917537          -0.592772          -0.878658           0.364325           0.133469          -0.759505           0.273180
hessian_block                6       6           5.277872           0.106263           1.368650           0.106263           6.051407           1.686495           1.368650           1.686495           8.123629
hessian_block                6       7           0.111912          -0.052998          -0.066545          -0.015440           0.404648           0.689069           0.467424           0.072026          -0.102697
hessian_block                6       8          -0.025594           0.592397           0.433577          -0.026341           0.441224           0.434183           0.156260          -0.078063          -0.377809
hessian_block                6       9           0.122234           0.331654           0.132116           0.038674           0.871655          -0.155685           0.495863          -0.090834          -0.276731
hessian_block                6      10          -1.613236          -0.937620          -2.425731          -1.043897          -2.348761          -3.022320          -1.745620          -2.446317          -3.815916
hessian_block                6      11           0.240372           0.120706          -0.128407          -0.149351           0.476748           0.244128          -0.662009           0.314631           0.431917
hessian_block                6      12           0.617060          -0.296242           0.115498           0.074590          -0.430032           0.174805           0.210698           0.070825           0.415734
hessian_block                7       7           5.659051           0.427545           1.413210           0.427545           5.972277          -1.270500           1.413210          -1.270500           7.445533
hessian_block                7       8          -0.370862           0.391219          -0.606717           0.267049          -0.275260           0.748191           0.709672          -0.423681           0.834299
hessian_block                7       9           0.266736           0.776496          -0.296843          -0.847782          -0.358164          -0.195808           0.742111          -0.373160           1.027381
hessian_block                7      10           0.251924          -0.336401          -0.089132           0.191585          -0.990384           0.121849          -0.385114          -0.827889           0.181110
hessian_block                7      11          -2.026521           0.493490          -1.897189           0.520299          -1.695932           1.896938          -1.866242           2.286675          -3.573973
hessian_block                7      12           0.679064          -0.302728           0.683975          -0.722049           0.384326          -0.790093          -0.823908           0.051113          -0.620253
hessian_block                8       8           5.127124          -0.190547          -1.326934          -0.190547           6.049679           1.467091          -1.326934           1.467091           7.039635
hessian_block                8       9           0.593202          -0.612494          -0.286134           0.530790           0.106628          -0.147727          -0.599809           0.551929           0.806887
hessian_block                8      10          -0.026555           0.136918           0.313989          -0.763631          -0.487872           0.494993          -0.684971          -0.224130           0.210544
hessian_block                8      11           0.413209          -0.506211          -0.577805           0.009252           0.950358           0.211593           0.864730          -0.527583          -0.904377
hessian_block                8      12          -1.419362           1.175186           1.938481           1.152261          -2.056747          -2.336954           1.732262          -1.943581          -2.983468
hessian_block                9       9           5.346085          -0.330281          -0.963512          -0.330281           6.758889          -1.378712          -0.963512          -1.378712           7.473194
hessian_block                9      10          -0.097607           0.407457          -0.026553          -0.503679          -0.433864           0.479860          -0.624633           0.232792           0.220381
hessian_block                9      11          -0.109758           1.031348          -0.485304          -0.719120           0.697379           0.055856           0.596297           0.081450          -1.169867
hessian_block                9      12          -0.250088          -0.735726           0.957234           0.282720          -0.218993          -0.837735          -0.055303           0.465728          -0.527305
hessian_block               10      10           5.519221           0.361306           1.337972           0.361306           6.882683           2.366782           1.337972           2.366782           7.902561
hessian_block               10      11          -0.270027           0.087155           0.410382           0.246878          -0.441971          -0.053008           0.155278          -0.847153          -0.668792
hessian_block               10      12          -0.418104           0.584580          -0.004170          -0.697481          -0.057873           0.085379          -0.480971          -0.164493          -0.044494
hessian_block               11      11           5.661548           0.325393           1.028655           0.325393           6.107504          -1.118914           1.028655          -1.118914           7.919031
hessian_block               11      12          -0.360151          -0.169331          -0.921953           0.654752          -0.653659           0.638026           0.855830          -0.090964           0.426496
hessian_block               12      12           5.530086          -0.224490          -0.993598          -0.224490           6.247174           1.541588          -0.993598           1.541588           7.151974
hessian_block_lv             1       1          21.599562          -5.600148           3.269358          -5.600148          19.104972           1.628828           3.269358           1.628828           1.733796
hessian_block_lv_atom        1       1          -0.224470          -0.063876          -0.191085          -0.267162           0.162800          -0.128527          -0.424228          -0.184064          -0.181780
hessian_block_lv_atom        1       2          -0.412114          -0.048282          -0.179993          -0.098870          -0.139314           0.011127           0.366958          -0.047977           0.152700
hessian_block_lv_atom        1       3          -0.436809          -0.105139          -0.090752           0.152286           0.170044           0.036718          -0.421706          -0.417925          -0.121879
hessian_block_lv_atom        1       4          -0.268576          -0.164362          -0.175490           0.385038          -0.141835           0.210243           0.396075           0.189300           0.124191
hessian_block_lv_atom        1       5           0.223488           0.065384           0.536329          -0.039769           0.371305           0.219353          -1.505669          -1.572787          -1.346191
hessian_block_lv_atom        1       6           1.076866          -0.175821           0.096217           0.167591          -0.402780          -0.395078          -1.229233          -1.599310          -1.214045
hessian_block_lv_atom        1       7          -0.253137           0.137968           0.448314          -0.247127          -0.311528          -0.506642           1.812032           2.111187           1.401673
hessian_block_lv_atom        1       8           0.093983           0.299824          -0.574968          -0.063255           0.326366           0.257017           1.300402           1.745794           1.166213
hessian_block_lv_atom        1       9           0.356821           0.185890          -0.333636           0.070537          -0.278681          -0.113526           1.835232           2.007649           1.360401
hessian_block_lv_atom        1      10          -0.821204           0.188876           0.204198           0.121142           0.152590           0.675176           0.942444           1.412322           1.232223
hessian_block_lv_atom        1      11           0.355461          -0.173976          -0.292160          -0.086851           0.515029           0.168802          -1.670650          -1.728030          -1.568166
hessian_block_lv_atom        1      12           0.309689          -0.146489           0.553024          -0.093562          -0.423996          -0.434661          -1.401656          -1.916158          -1.005343
