# 
# This is the geometry file that corresponds to the current relaxation step.
# If you do not want this file to be written, set the "write_restart_geometry" flag to .false.
#  aims_uuid : FC2F63C4-C931-480A-A09B-FACC5092551E                                
# 
lattice_vector      5.83939028      0.00000000      0.00000000
lattice_vector      0.00000000      5.95053829      0.00000000
lattice_vector      0.00000000      0.00000000      7.50475497
atom_frac       0.50147398      0.00087310      0.00074710 Pd
atom_frac       0.00085644      0.00084925      0.50160763 Pd
atom_frac       0.00089849      0.50146790      0.00072849 Pd
atom_frac       0.50153882      0.50144321      0.50162384 Pd
atom_frac       0.61314802      0.11909163      0.40384955 Se
atom_frac       0.89041641      0.88396051      0.90437528 Se
atom_frac       0.11255248      0.38336979      0.59929553 Se
atom_frac       0.38986350      0.61971098      0.09855464 Se
atom_frac       0.38984293      0.88388846      0.59929220 Se
atom_frac       0.11253141      0.11898118      0.09845662 Se
atom_frac       0.89039155      0.61970896      0.40387455 Se
atom_frac       0.61315134      0.38332042      0.90425996 Se
# 
# What follows is the current estimated Hessian matrix constructed by the BFGS algorithm.
# This is NOT the true Hessian matrix of the system.
# If you do not want this information here, switch it off using the "hessian_to_restart_geometry" keyword.
# 
trust_radius             0.0122015458
hessian_block                1       1           6.345211          -0.634685          -2.343711          -0.634685           7.491268          -0.872979          -2.343711          -0.872979           4.785149
hessian_block                1       2          -0.728172           1.828686           0.359589          -0.587235           2.266610           0.450849          -0.679618           1.424527           0.400583
hessian_block                1       3          -1.191646           2.868303           0.593300           0.036535          -0.621190          -0.062859          -0.832793           1.453978           0.300942
hessian_block                1       4           0.585035           0.235699          -0.065246           0.004711          -0.030626           0.029406          -0.103040           0.393518           0.160649
hessian_block                1       5           0.193370          -1.213484          -0.303165          -1.201111           1.186499           0.453203           0.087140          -0.244202           0.124498
hessian_block                1       6          -0.570215          -1.908183           0.241636           1.939024          -3.178041          -0.951340           3.761996          -4.821537          -1.464810
hessian_block                1       7          -0.971739           0.962662           0.402237           0.648314          -0.498343          -0.063127           0.102036          -0.566601          -0.241614
hessian_block                1       8           0.620045          -2.044628          -0.078772          -0.043516          -2.827009           0.559690          -0.582560           1.535186          -0.415158
hessian_block                1       9           0.042749          -0.238771           0.067061           0.412006          -1.493698          -0.401615          -0.188700          -0.434684          -0.155147
hessian_block                1      10          -3.772026           3.304012           1.556353          -1.690406           3.121286           0.600354          -1.116026           3.223494           0.235262
hessian_block                1      11           0.877902          -1.569526          -0.464791           0.728984          -1.441701          -0.475569           0.486949          -0.252206           0.101556
hessian_block                1      12           0.135397          -1.590088           0.035508           0.387378          -2.328032           0.733989           1.408329          -0.838492          -0.730045
hessian_block                2       2           7.616635           2.283613           3.687347           2.283613           9.747734           3.488770           3.687347           3.488770           6.124972
hessian_block                2       3           3.398923           4.054657           2.667197          -0.827178          -0.920215          -0.530970           1.657019           2.071440           1.499604
hessian_block                2       4           0.219765           0.502883           0.070874          -0.326382           0.720560           0.315189           0.346360           0.825613           0.374080
hessian_block                2       5          -2.969472          -0.875598          -1.665147           1.625490           1.256808           1.381145          -0.979959          -0.554337          -0.969614
hessian_block                2       6          -2.955657          -3.347640          -2.301604          -3.146615          -5.126308          -3.212275          -5.243488          -6.870633          -4.948280
hessian_block                2       7           0.691969           0.681780           0.615301          -1.295185          -2.967689          -1.730543          -0.907814          -1.773567          -0.879617
hessian_block                2       8          -1.675190          -2.546655          -1.616810          -0.789184          -1.786044          -1.081600           0.806050           1.040715           1.013611
hessian_block                2       9          -2.272210          -0.074101          -1.199373          -0.574966          -2.777595          -1.132211          -1.435139          -0.348714          -0.605990
hessian_block                2      10           3.418343           3.604329           2.759735           3.639014           5.626791           3.806524           4.094992           5.607741           3.944066
hessian_block                2      11          -1.716948          -2.491835          -1.498788          -1.723081          -4.369045          -2.346973          -0.512287          -1.612641          -1.093826
hessian_block                2      12          -1.462073          -1.204197          -0.839114          -0.694214          -0.024581          -0.381581          -1.872670          -2.325235          -1.757723
hessian_block                3       3          10.659324          -1.140728           4.804249          -1.140728           6.279717          -1.666695           4.804249          -1.666695           6.198827
hessian_block                3       4           0.284350          -0.256245          -0.057053          -0.023995           0.145611           0.150399           0.698616          -0.172846           0.431901
hessian_block                3       5          -1.861490           0.290927          -0.989157           1.921242           0.023290           1.446058          -0.478384           0.155969          -0.202924
hessian_block                3       6          -4.763986           1.430863          -2.731791          -5.035128          -0.891895          -2.246685          -8.987517           2.328205          -5.370396
hessian_block                3       7           1.513576          -0.040637           1.155304          -1.352948           0.337468          -0.685910          -1.112358           0.177087          -0.626781
hessian_block                3       8          -4.616563           0.069074          -2.365934          -2.181270          -0.061407          -1.317310           0.558728          -0.475276           0.355863
hessian_block                3       9          -0.782762           0.445288          -0.207908          -2.218511           0.272366          -1.380999          -0.851020           0.315053          -0.284694
hessian_block                3      10           5.229269          -0.391232           2.840253           6.962529          -2.942699           4.668831           6.609211          -0.471196           3.253927
hessian_block                3      11          -2.539263           0.385928          -1.546684          -2.405375           0.148817          -1.618591          -0.639116           0.145063          -0.354856
hessian_block                3      12          -3.763822          -0.002595          -1.725508          -1.448777          -0.122838          -0.874513          -3.862906           0.258465          -2.099548
hessian_block                4       4           5.935252           0.035146          -2.022829           0.035146           6.725685           1.495986          -2.022829           1.495986           4.895432
hessian_block                4       5          -0.476335           0.659962           0.034988           0.027255          -1.642704          -0.684274           0.097251          -1.300239          -0.676622
hessian_block                4       6          -0.133038           0.047619          -0.496122          -0.175129          -1.106071          -1.032273           0.361107          -0.850121          -1.324418
hessian_block                4       7          -2.091965          -0.347220           0.945338          -0.243300          -0.456081          -0.045252           0.733160           0.133970          -0.553766
hessian_block                4       8          -0.106466          -0.410692          -0.480386           0.051255          -0.724742          -0.444147          -0.315947           0.186507           0.284945
hessian_block                4       9          -0.282872           0.550083           0.109854           0.226962          -2.719294          -1.402568          -0.032612          -0.696042          -0.506275
hessian_block                4      10          -0.429445          -0.062483           0.531600          -0.351121           1.308232           1.126780           0.043624           0.788854           1.159636
hessian_block                4      11          -1.735769          -0.554523           0.599367          -0.548832          -0.999970          -0.205776           0.999326          -0.134072          -0.666492
hessian_block                4      12          -0.202602           0.427774          -0.163744           0.495424           0.426422           0.145240           0.188345          -0.119836          -0.477205
hessian_block                5       5           5.785182          -0.979261          -1.226129          -0.979261           7.216825          -1.703744          -1.226129          -1.703744           7.682805
hessian_block                5       6           1.760754          -1.859064           0.260080           1.676488          -2.739312           1.336639           2.633444          -4.833236           1.546335
hessian_block                5       7          -0.566358           1.945358          -0.837000          -0.322361          -0.492309           0.565169           0.850871           0.206189          -0.993794
hessian_block                5       8           0.633743          -1.507332           1.212810           0.900840          -0.837106          -0.296909           0.180321           1.453648          -1.093075
hessian_block                5       9          -1.245595          -0.600931           1.960857           0.204496          -2.878434           2.690123           2.080482           2.323742          -3.420052
hessian_block                5      10          -1.708414           2.834184          -0.439253          -1.563711           3.595369          -1.579887          -1.758364           3.259421          -1.450567
hessian_block                5      11           1.040096          -2.016682           0.982680           1.303344          -1.819689           0.325698          -0.651546          -1.031076           1.399751
hessian_block                5      12           0.980431          -0.189147          -0.640093          -0.081642          -1.222210           0.605720           0.813402          -2.271077           1.155122
hessian_block                6       6           8.482489           4.640364           8.781532           4.640364          12.128801          11.509649           8.781532          11.509649          23.527081
hessian_block                6       7          -1.298338          -2.172568          -3.620766           1.168630           1.829559           3.095964           1.096689           0.984568           1.354421
hessian_block                6       8           2.373223           3.736884           5.483937           1.558639           2.468912           3.347345          -1.224163          -2.046645          -3.488547
hessian_block                6       9           0.492273           0.771810           1.065510           1.822987           3.586284           4.582334           0.737555           0.286718           0.203164
hessian_block                6      10          -5.771881          -6.623647         -11.528425          -6.617169          -9.672033         -14.738113          -7.505641          -9.894845         -15.405167
hessian_block                6      11           2.122577           3.011575           4.773326           2.184880           3.605804           4.937958           0.412873           1.505136           2.143771
hessian_block                6      12           1.827708           1.376940           2.519345           0.878074           0.741324           2.312186           2.728955           3.761354           6.328711
hessian_block                7       7           6.148850          -0.159918           1.174575          -0.159918           6.121337          -1.015177           1.174575          -1.015177           7.778455
hessian_block                7       8          -1.452680           1.008230          -0.057233          -0.519419           0.315222           1.176674           1.330849          -0.989704           0.733618
hessian_block                7       9           0.083569           0.709164          -0.231502          -1.551666           0.294177          -0.009306           0.713318          -0.190990           1.318985
hessian_block                7      10           2.119007          -1.767218          -1.001722           2.823983          -2.618849          -1.071709           2.495598          -2.561770          -0.993410
hessian_block                7      11          -2.699131           1.300708          -1.632117          -0.574835          -0.827710           2.461226          -2.497275           2.478853          -3.429971
hessian_block                7      12           0.089150           0.305881           0.985416          -1.047521           0.610241          -0.703355          -1.877480           1.142487          -0.364663
hessian_block                8       8           6.568245           0.958616          -2.310430           0.958616           6.473820           0.959291          -2.310430           0.959291           7.721221
hessian_block                8       9           0.702452          -0.257906          -0.542044           1.821909           1.255715          -1.100629          -0.293706           0.711081           0.946664
hessian_block                8      10          -3.001836          -1.754894           2.000108          -4.461649          -2.915856           2.845234          -4.495207          -2.394329           2.621487
hessian_block                8      11           1.883331           0.596085          -1.462097           1.660556           1.793160          -0.610326           1.385751          -0.333808          -1.408861
hessian_block                8      12          -0.362392           1.480754           1.561185           1.715683          -1.507640          -2.798001           3.615979          -0.885980          -4.169904
hessian_block                9       9           5.164783          -0.265110          -0.849359          -0.265110           7.557786          -1.362395          -0.849359          -1.362395           7.720725
hessian_block                9      10          -0.590466          -2.006223          -0.419039          -0.993788          -3.776996          -0.071349          -1.286770          -3.526021          -0.236696
hessian_block                9      11           0.114698           1.944617          -0.480408          -0.302130           2.193859           0.272770           0.704360           0.977324          -1.176265
hessian_block                9      12           0.139293           0.183498           1.018629           0.256392           0.132855          -0.805191           0.409314           2.065965          -0.702558
hessian_block               10      10          10.790732           7.266238           8.334123           7.266238          15.616900          11.177039           8.334123          11.177039          16.477605
hessian_block               10      11          -2.799827          -3.515274          -3.557454          -2.624497          -4.197263          -3.620547          -0.979919          -2.116175          -1.791879
hessian_block               10      12          -1.917547          -1.498649          -1.858087          -1.778569          -1.497857          -1.587841          -3.653813          -4.647529          -4.712399
hessian_block               11      11           6.562522           1.826581           1.952044           1.826581           7.487213          -0.653997           1.952044          -0.653997           7.943708
hessian_block               11      12           0.455723           0.474405          -0.661159           1.082345           0.073548           1.027600           2.334924           1.534127           1.435228
hessian_block               12      12           5.646645           0.235426          -0.232378           0.235426           6.365792           2.325749          -0.232378           2.325749           9.196847
hessian_block_lv             1       1          22.120386          -5.497969           4.215273          -5.497969          19.802103           2.150320           4.215273           2.150320           2.568342
hessian_block_lv_atom        1       1          -0.705711          -0.576682          -0.777490           0.635771           1.296665           1.077897          -0.089107           0.118520           0.242886
hessian_block_lv_atom        1       2           0.687319           1.277276           1.202570           1.339032           1.634164           1.799116           1.269857           1.156718           1.264316
hessian_block_lv_atom        1       3           1.271759           1.980520           2.094691          -0.221046          -0.226142          -0.377506           0.663636           0.834644           1.220500
hessian_block_lv_atom        1       4          -0.214309          -0.035413          -0.109966           0.542854           0.082536           0.360973           0.579036           0.489529           0.368360
hessian_block_lv_atom        1       5           0.036609          -0.557989          -0.174737           1.290111           1.792261           1.499364          -1.096226          -2.203895          -1.502753
hessian_block_lv_atom        1       6          -0.839355          -2.184540          -1.986241          -2.017523          -2.947104          -2.927417          -3.641530          -5.705930          -4.996080
hessian_block_lv_atom        1       7           0.897379           1.073296           1.435395          -1.008781          -0.939849          -1.098887           0.734041           1.882127           0.739440
hessian_block_lv_atom        1       8          -1.442227          -1.132119          -1.998965          -0.325967          -0.242614          -0.435472           1.313170           2.733628           1.791852
hessian_block_lv_atom        1       9          -0.265475          -0.159180          -0.653494          -1.354503          -1.873394          -1.512013           1.005372           2.144795           0.974252
hessian_block_lv_atom        1      10           1.448555           2.514679           2.669657           2.766270           3.174553           3.674793           2.540463           4.505916           4.026460
hessian_block_lv_atom        1      11          -1.139410          -1.593528          -1.691796          -0.840534          -0.689672          -1.066259          -1.254240          -2.243381          -1.731397
hessian_block_lv_atom        1      12           0.264863          -0.606323          -0.009625          -0.805686          -1.061406          -0.994589          -2.024471          -3.712670          -2.397836
symmetry_n_params 39 3 36
symmetry_params a1 b2 c3 x0 x1 x2 x3 x4 x5 x6 x7 x8 x9 x10 x11 x12 x13 x14 x15 x16 x17 x18 x19 x20 x21 x22 x23 x24 x25 x26 x27 x28 x29 x30 x31 x32 x33 x34 x35
symmetry_lv a1 , 0 , 0 
symmetry_lv 0 , b2 , 0 
symmetry_lv 0 , 0 , c3
symmetry_frac x0 , x1 , x2
symmetry_frac x3 , x4 , x5
symmetry_frac x6 , x7 , x8
symmetry_frac x9 , x10 , x11
symmetry_frac x12 , x13 , x14
symmetry_frac x15 , x16 , x17
symmetry_frac x18 , x19 , x20
symmetry_frac x21 , x22 , x23
symmetry_frac x24 , x25 , x26
symmetry_frac x27 , x28 , x29
symmetry_frac x30 , x31 , x32
symmetry_frac x33 , x34 , x35
