# 
# This is the geometry file that corresponds to the current relaxation step.
# If you do not want this file to be written, set the "write_restart_geometry" flag to .false.
#  aims_uuid : C4CF36D8-4855-424B-A791-1415AB056862                                
# 
lattice_vector      5.83784168      0.00000000      0.00000000
lattice_vector      0.00000000      5.95037729      0.00000000
lattice_vector      0.00000000      0.00000000      7.51790513
atom_frac       0.50114518      0.00041138      0.00028404 Pd
atom_frac       0.00040950      0.00047278      0.50137992 Pd
atom_frac       0.00051763      0.50114115      0.00030925 Pd
atom_frac       0.50125503      0.50120212      0.50135575 Pd
atom_frac       0.61288049      0.11862138      0.40370109 Se
atom_frac       0.89028869      0.88374613      0.90433640 Se
atom_frac       0.11215214      0.38305420      0.59876607 Se
atom_frac       0.38943004      0.61938717      0.09791060 Se
atom_frac       0.38949188      0.88375965      0.59877129 Se
atom_frac       0.11214442      0.11870144      0.09793743 Se
atom_frac       0.89022062      0.61929957      0.40371188 Se
atom_frac       0.61289040      0.38302904      0.90436231 Se
# 
# What follows is the current estimated Hessian matrix constructed by the BFGS algorithm.
# This is NOT the true Hessian matrix of the system.
# If you do not want this information here, switch it off using the "hessian_to_restart_geometry" keyword.
# 
trust_radius             0.0122098322
hessian_block                1       1           6.351975          -1.015495          -2.571089          -1.015495           9.006177          -0.175819          -2.571089          -0.175819           5.134679
hessian_block                1       2          -1.057630           3.058717           0.957989          -0.523217           2.566514           0.757208          -0.545734           1.456852           0.506249
hessian_block                1       3          -1.483743           4.268945           1.370977           0.019615          -0.461612          -0.034700          -1.041309           2.401987           0.854687
hessian_block                1       4           0.527026           0.217842          -0.059339           0.425085          -1.062710          -0.318802           0.049570           0.094364           0.034250
hessian_block                1       5           0.568475          -2.129663          -0.794311          -1.680145           3.476636           1.409170          -0.082573          -0.331383           0.012578
hessian_block                1       6          -0.021942          -4.324205          -0.901648           2.031045          -4.556215          -1.724583           4.127978          -7.719221          -3.169741
hessian_block                1       7          -1.156303           2.267864           0.886507           0.521128          -0.753517          -0.239094           0.031948           0.127748          -0.016200
hessian_block                1       8           0.418128          -2.251146          -0.291920          -0.013177          -2.819206           0.398953          -0.916238           3.204002           0.385688
hessian_block                1       9          -0.077650          -0.075988           0.151348           0.725605          -3.180375          -1.133240          -0.216885           0.283561           0.138542
hessian_block                1      10          -4.147911           5.575325           2.696403          -1.482599           3.830669           1.185018          -1.188065           4.768213           1.309074
hessian_block                1      11           1.196659          -3.335635          -1.145259           0.521823          -1.005507          -0.464935           0.245744          -0.269503           0.026524
hessian_block                1      12           0.448826          -2.256563          -0.299657           0.470331          -3.393826           0.340822           2.106652          -3.840799          -2.114466
hessian_block                2       2           8.547216           2.477096           3.641267           2.477096           8.784645           2.802672           3.641267           2.802672           5.640411
hessian_block                2       3           4.408812           3.742709           2.235024          -0.670128          -0.556473          -0.321707           2.346859           1.941899           1.233464
hessian_block                2       4           0.162906           0.521819           0.082980          -1.174155          -0.213909          -0.212010           0.130437           0.428693           0.176999
hessian_block                2       5          -3.640320          -1.143274          -1.689622           3.675030           2.369524           1.840665          -1.125063          -0.494188          -0.822603
hessian_block                2       6          -4.744188          -4.010295          -2.356379          -4.249208          -4.301800          -2.494619          -7.368362          -6.535655          -4.060747
hessian_block                2       7           1.935199           1.084562           0.799476          -1.446531          -2.632319          -1.428959          -0.170558          -0.915585          -0.432793
hessian_block                2       8          -1.807065          -1.785325          -1.027476          -0.746931          -0.950075          -0.544537           2.341692           2.075094           1.390006
hessian_block                2       9          -2.128883           0.267194          -1.027170          -2.155326          -3.332449          -1.341200          -0.696234           0.460215          -0.254870
hessian_block                2      10           5.066273           3.901751           2.530903           4.140481           4.029271           2.587577           5.077940           4.777382           2.931235
hessian_block                2      11          -3.307800          -3.197969          -1.806754          -1.346360          -3.316675          -1.660440          -0.612790          -1.337109          -0.832379
hessian_block                2      12          -1.868607          -1.335049          -0.836514          -1.562686          -0.799228          -0.684296          -4.523178          -3.960625          -2.373107
hessian_block                3       3          11.500572          -0.804383           5.447678          -0.804383           6.226182          -1.452678           5.447678          -1.452678           6.723387
hessian_block                3       4           0.229753          -0.221309          -0.085935          -1.370251           0.291071          -0.687801           0.253696          -0.114056           0.109206
hessian_block                3       5          -2.695778           0.201194          -1.618119           4.479434          -0.027908           3.017703          -0.493590           0.140357          -0.189561
hessian_block                3       6          -6.847675           1.042001          -4.216660          -5.672491          -1.364903          -2.732172         -10.826018           1.592368          -6.891775
hessian_block                3       7           2.925526          -0.116223           1.909385          -1.323924           0.118820          -0.777954          -0.018756          -0.022209           0.002100
hessian_block                3       8          -4.312255          -0.128601          -2.181788          -1.792418          -0.301295          -1.200713           2.513957          -0.526488           1.617987
hessian_block                3       9          -0.444439           0.380503           0.042825          -4.025038           0.185643          -2.482607           0.190444           0.163016           0.328414
hessian_block                3      10           6.979791           0.009827           4.124843           6.579517          -2.415205           4.504621           7.075226           0.203134           3.863935
hessian_block                3      11          -4.419340           0.428415          -2.587183          -1.464614          -0.004424          -0.988487          -0.521812           0.131294          -0.260135
hessian_block                3      12          -4.275312          -0.140911          -2.140597          -2.617483          -0.042873          -1.543798          -7.226823           0.241667          -4.289843
hessian_block                4       4           5.896293           0.111239          -1.982355           0.111239           6.908293           1.424574          -1.982355           1.424574           4.863611
hessian_block                4       5          -0.397482           1.176350           0.207208           0.164160          -2.863849          -0.908700          -0.001840          -1.118243          -0.630699
hessian_block                4       6          -0.044942           1.384512          -0.118078          -0.199076           0.665053          -0.402920           0.380026           1.667114          -0.370400
hessian_block                4       7          -1.958963          -1.316742           0.798403          -0.272776          -0.054328           0.203579           0.839442           0.071788          -0.466676
hessian_block                4       8          -0.179804           0.370978          -0.193337           0.109419          -0.130513          -0.088342          -0.185169          -0.526530           0.154161
hessian_block                4       9          -0.275701           0.672611           0.132203           0.074570          -1.630231          -1.142852           0.099672          -0.797489          -0.445023
hessian_block                4      10          -0.459153          -1.601838           0.044506          -0.297835          -0.519395           0.419925          -0.026194          -0.940414           0.417488
hessian_block                4      11          -1.859423           0.536410           0.720358          -0.600860          -0.521341          -0.017158           0.887389           0.189819          -0.543975
hessian_block                4      12          -0.074600           0.785802          -0.042610           0.392806           0.778884           0.102892           0.051323           1.247993          -0.197078
hessian_block                5       5           6.202235          -2.562182          -0.876783          -2.562182          10.004808          -1.682934          -0.876783          -1.682934           7.664583
hessian_block                5       6           3.042867          -5.525931           0.529665           2.660347          -5.280014           1.201628           4.541578          -9.570788           1.752922
hessian_block                5       7          -1.660088           3.448271          -0.448557          -0.148241          -0.930221           0.494991           0.197499           0.569006          -1.064911
hessian_block                5       8           1.018584          -1.987747           0.684874           0.929680          -1.286155          -0.332346          -1.191982           3.444603          -1.325340
hessian_block                5       9          -1.253377          -0.473740           1.707166           1.420574          -5.186564           2.772888           1.386214           2.741300          -3.493873
hessian_block                5      10          -3.037615           6.241677          -0.436376          -2.255464           5.339269          -1.139851          -2.811693           6.160417          -1.604154
hessian_block                5      11           2.315376          -4.247681           0.746018           1.226589          -1.688351           0.033479          -0.276245          -0.857974           1.224368
hessian_block                5      12           1.103035          -1.531147          -0.202941           0.624089          -2.280150           0.455603           2.926257          -6.162466           1.578554
hessian_block                6       6          12.534920           7.126363          13.782792           7.126363          12.149088          13.113116          13.782792          13.113116          28.471541
hessian_block                6       7          -3.240479          -3.252463          -5.719514           1.898261           1.730092           3.402554          -0.097732          -0.296994          -0.753985
hessian_block                6       8           2.609596           2.850784           4.492839           1.704897           1.573467           2.836748          -4.017331          -4.092892          -7.598486
hessian_block                6       9           0.188488           0.268501           0.226474           4.832086           5.187861           8.176397          -0.575634          -0.898591          -1.905749
hessian_block                6      10          -9.490264          -8.523621         -15.587244          -7.903185          -8.296952         -14.042305         -10.290911         -10.122906         -17.652620
hessian_block                6      11           4.785419           4.757846           7.923354           1.355068           1.953995           2.778219           0.545634           1.087787           1.938775
hessian_block                6      12           2.794108           2.201972           4.026096           2.420429           2.187354           4.301453           7.716281           7.363145          13.342127
hessian_block                7       7           6.817234          -0.176984           1.215769          -0.176984           6.190283          -1.286610           1.215769          -1.286610           7.519077
hessian_block                7       8          -1.391924           0.591925          -0.266734          -0.696010           0.083861           0.614814           2.148776          -1.364962           1.043679
hessian_block                7       9           0.286639           0.569242          -0.195696          -2.662834           0.542858          -0.539238           0.712772          -0.445072           1.127659
hessian_block                7      10           3.800524          -2.224364           0.111908           3.343223          -2.056458           0.164243           3.536904          -2.677204           0.717660
hessian_block                7      11          -3.855228           1.468515          -1.891861          -0.341880          -1.475422           2.114141          -1.967562           2.308840          -3.447202
hessian_block                7      12          -0.936228           0.543750           0.244771          -1.580784           0.883376          -0.601106          -3.872357           1.809889          -1.126544
hessian_block                8       8           5.608155           0.519192          -2.515327           0.519192           5.828617           0.454692          -2.515327           0.454692           9.480329
hessian_block                8       9           0.300993          -0.451289          -0.255124           2.004696           1.196679          -2.927158          -0.373592           0.203016           1.404654
hessian_block                8      10          -2.797425          -1.835444           4.559370          -2.865117          -1.673624           4.324425          -3.259836          -1.709503           5.348212
hessian_block                8      11           2.056150           0.849807          -2.857471           0.796817           1.076661          -0.674227           0.665144          -0.419895          -1.443950
hessian_block                8      12           0.042778           1.422274           0.374846           1.883544          -0.951393          -3.390558           4.267155          -0.212886          -7.355075
hessian_block                9       9           5.010006          -0.448492          -0.754610          -0.448492           9.360142          -1.998490          -0.754610          -1.998490           7.602636
hessian_block                9      10          -0.186161          -4.732084           0.719845          -0.367241          -4.635067           0.926189          -0.538453          -5.641222           1.433619
hessian_block                9      11          -0.072126           3.762589          -0.745847          -0.575516           1.851241           0.054570           0.419296           0.816190          -1.138091
hessian_block                9      12           0.218123           1.203653           0.253854           0.234214           1.287282          -0.692224           0.091742           5.440531          -1.696054
hessian_block               10      10          13.982200           7.767343          10.358089           7.767343          12.698334           9.664862          10.358089           9.664862          17.160365
hessian_block               10      11          -5.175344          -4.551108          -5.221544          -1.520765          -2.130934          -1.628491          -0.785617          -1.341602          -1.635634
hessian_block               10      12          -2.969004          -2.108015          -2.711462          -3.057807          -2.522884          -2.854267          -8.336630          -7.253099          -9.187312
hessian_block               11      11           8.345404           1.634780           1.548798           1.634780           6.802786          -1.113744           1.548798          -1.113744           7.613728
hessian_block               11      12           1.556162           0.314916          -0.147977           1.894033           0.104994           0.805897           5.317390           1.567071           1.599837
hessian_block               12      12           5.526628           0.899314           1.482188           0.899314           6.395487           3.759580           1.482188           3.759580          14.920825
hessian_block_lv             1       1          26.415812          -1.820331           6.709532          -1.820331          24.681998           3.547099           6.709532           3.547099           3.169428
hessian_block_lv_atom        1       1          -1.188570          -0.605829          -0.787102           2.955276           1.996810           2.046261           1.382387           0.885465           0.821458
hessian_block_lv_atom        1       2           2.978801           1.724701           1.961536           3.742063           2.212680           1.917535           2.017630           1.005758           1.061378
hessian_block_lv_atom        1       3           4.429582           2.602809           2.807657          -0.488580           0.026317          -0.188838           3.070711           1.839942           1.840148
hessian_block_lv_atom        1       4           0.131977           0.083792          -0.015434           0.232558           0.174618          -0.331323           0.352407           0.091458           0.053811
hessian_block_lv_atom        1       5          -2.101632          -1.231259          -0.998478           3.895637           2.907556           2.863839          -2.292577          -2.890657          -1.699292
hessian_block_lv_atom        1       6          -4.959505          -3.862716          -3.675387          -5.615448          -3.976222          -3.600572         -10.658530          -8.555066          -6.977898
hessian_block_lv_atom        1       7           2.008131           1.158016           1.785596          -1.434454          -1.463597          -1.152500           0.919417           2.217603           1.276474
hessian_block_lv_atom        1       8          -2.113886          -1.156960          -1.521607          -1.434146          -0.834225          -0.509155           4.457861           4.371347           3.192333
hessian_block_lv_atom        1       9           0.158144           0.227904          -0.259093          -4.360886          -3.225982          -2.703394           1.696999           2.770639           1.602725
hessian_block_lv_atom        1      10           5.264237           3.951597           3.927824           5.855316           3.772234           3.582772           7.884762           6.822228           5.212059
hessian_block_lv_atom        1      11          -3.166152          -1.951950          -2.468879          -2.049352          -0.570520          -0.564656          -1.975115          -2.648344          -1.667022
hessian_block_lv_atom        1      12          -1.441127          -0.940105          -0.756632          -1.297987          -1.019670          -1.359970          -6.855955          -5.910373          -4.716175
symmetry_n_params 39 3 36
symmetry_params a1 b2 c3 x0 x1 x2 x3 x4 x5 x6 x7 x8 x9 x10 x11 x12 x13 x14 x15 x16 x17 x18 x19 x20 x21 x22 x23 x24 x25 x26 x27 x28 x29 x30 x31 x32 x33 x34 x35
symmetry_lv a1 , 0 , 0 
symmetry_lv 0 , b2 , 0 
symmetry_lv 0 , 0 , c3
symmetry_frac x0 , x1 , x2
symmetry_frac x3 , x4 , x5
symmetry_frac x6 , x7 , x8
symmetry_frac x9 , x10 , x11
symmetry_frac x12 , x13 , x14
symmetry_frac x15 , x16 , x17
symmetry_frac x18 , x19 , x20
symmetry_frac x21 , x22 , x23
symmetry_frac x24 , x25 , x26
symmetry_frac x27 , x28 , x29
symmetry_frac x30 , x31 , x32
symmetry_frac x33 , x34 , x35
