# 
# This is the geometry file that corresponds to the current relaxation step.
# If you do not want this file to be written, set the "write_restart_geometry" flag to .false.
#  aims_uuid : E10D61E4-0B93-48ED-ACBD-2E392343D2FE                                
# 
lattice_vector      5.84482477      0.00000000      0.00000000
lattice_vector      0.00000000      5.95436345      0.00000000
lattice_vector      0.00000000      0.00000000      7.50794374
atom_frac       0.50232720      0.00240394      0.00215326 Pd
atom_frac       0.00233194      0.00237403      0.50264877 Pd
atom_frac       0.00250062      0.50237453      0.00216083 Pd
atom_frac       0.50245121      0.50239424      0.50262706 Pd
atom_frac       0.61450125      0.12077094      0.40568148 Se
atom_frac       0.89026121      0.88402049      0.90551708 Se
atom_frac       0.11452851      0.38405921      0.59930620 Se
atom_frac       0.39035412      0.62078108      0.09911106 Se
atom_frac       0.39033326      0.88409114      0.59931760 Se
atom_frac       0.11450535      0.12075751      0.09911679 Se
atom_frac       0.89027924      0.62075951      0.40568585 Se
atom_frac       0.61446753      0.38405480      0.90551548 Se
# 
# What follows is the current estimated Hessian matrix constructed by the BFGS algorithm.
# This is NOT the true Hessian matrix of the system.
# If you do not want this information here, switch it off using the "hessian_to_restart_geometry" keyword.
# 
trust_radius             0.0976786576
hessian_block                1       1           5.973471           0.039648          -2.151489           0.039648           6.446579          -1.209757          -2.151489          -1.209757           4.673534
hessian_block                1       2          -0.039009           0.464069          -0.085301           0.296007           0.131417          -0.224138          -0.074164           0.016511          -0.008272
hessian_block                1       3          -0.076117           0.483807          -0.129823          -0.062395          -0.089785           0.118212          -0.144142           0.008716          -0.104833
hessian_block                1       4           0.538936           0.106509          -0.069556           0.103516          -0.525843          -0.113514           0.040266           0.017879           0.016325
hessian_block                1       5          -0.052181          -0.408638          -0.100046          -0.358087           0.350568           0.236673          -0.238554           0.157411           0.074638
hessian_block                1       6          -1.809863           0.140812           0.821054           0.472960          -0.431365          -0.140302           1.267515          -0.182550          -0.453471
hessian_block                1       7          -0.388178           0.339246           0.118262           0.140367           0.095915           0.093861           0.142924           0.141344           0.154397
hessian_block                1       8          -0.264569          -0.270996           0.363169          -0.332037          -1.880231           0.819127           0.111504           0.748403          -0.428656
hessian_block                1       9          -0.136839           0.069913           0.184824          -0.407786          -0.364035          -0.061079           0.017973          -0.091262           0.172209
hessian_block                1      10          -2.269073           0.668107           0.836499           0.009491          -0.425921          -0.431267           0.708514          -0.424581          -0.536753
hessian_block                1      11           0.078585          -0.570407          -0.053492           0.232722           0.327199           0.071079           0.087837           0.179934           0.090101
hessian_block                1      12           0.010746          -1.062074           0.265900          -0.134405          -1.987472           0.841102           0.231812           0.637955          -0.547355
hessian_block                2       2           6.024205           0.269743           2.372734           0.269743           7.276959           1.999786           2.372734           1.999786           5.157131
hessian_block                2       3           0.813938           0.811417           0.568217          -0.406511          -0.532252          -0.348075           0.069355           0.045788           0.181829
hessian_block                2       4           0.151643           0.630566           0.165758          -0.504350           0.721221           0.390476           0.097428           0.545598           0.233615
hessian_block                2       5          -2.008996           0.144386          -0.969562           0.499739          -0.685934          -0.030929          -0.665783          -0.186097          -0.529893
hessian_block                2       6          -0.373757          -0.035247          -0.042669          -0.282487          -1.002753          -0.553921          -0.147594          -0.417200          -0.361376
hessian_block                2       7          -0.013078          -0.666410          -0.240581          -0.516576          -1.626448          -0.804749          -0.336463          -1.430226          -0.943457
hessian_block                2       8          -0.120651          -0.612513          -0.371439           0.123337          -0.336553          -0.236792          -0.132656          -0.287121          -0.128473
hessian_block                2       9          -2.035163           0.347306          -0.992394           0.626749          -0.862582           0.136186          -1.175596          -0.220975          -0.850998
hessian_block                2      10           0.346304          -0.182113           0.159076           0.222379           1.119157           0.921099           0.167237           0.793545           0.519580
hessian_block                2      11          -0.553911          -0.718972          -0.337339          -0.376927          -3.208933          -1.720119          -0.124235          -0.913426          -0.458004
hessian_block                2      12          -0.625612          -0.284168          -0.237638          -0.119165           0.653726           0.230526          -0.039127           0.294464           0.290181
hessian_block                3       3           6.504019          -0.528585           2.264515          -0.528585           6.315319          -1.260189           2.264515          -1.260189           4.708900
hessian_block                3       4           0.278769          -0.298862          -0.040814          -0.225895           0.049679           0.001308           0.273269          -0.179531           0.109693
hessian_block                3       5          -0.478658           0.097770          -0.180161          -0.204914           0.468375           0.148792           0.077691           0.118147           0.094639
hessian_block                3       6          -0.559700           0.476073          -0.323443          -0.102549          -1.730147           0.766184          -0.699938           0.889676          -0.688248
hessian_block                3       7           0.097026           0.139489           0.129434           0.094443          -0.111720           0.075233          -0.417144           0.205542          -0.101641
hessian_block                3       8          -2.051451          -0.123822          -0.840951          -0.650189          -0.318556          -0.417575          -1.066811          -0.148033          -0.499083
hessian_block                3       9          -0.292358           0.383108           0.103565          -0.013542          -0.146673          -0.010718          -0.593771           0.366068          -0.012954
hessian_block                3      10           0.297243           0.517049          -0.011350           1.267887          -2.240995           1.151613           0.298483           0.605307          -0.293281
hessian_block                3      11          -0.418694           0.088364          -0.077849          -0.477022           0.290445          -0.267909           0.133393           0.046878           0.086579
hessian_block                3      12          -2.548106          -0.281680          -0.948159          -0.454856          -0.306666          -0.241243          -0.708081          -0.414003          -0.379734
hessian_block                4       4           6.006500           0.234025          -1.962193           0.234025           7.032236           1.546727          -1.962193           1.546727           4.906870
hessian_block                4       5          -0.425770           0.632835           0.177293           0.069955          -2.263924          -1.090304          -0.037960          -1.318622          -0.559937
hessian_block                4       6          -0.060328           0.315910           0.036537          -0.209769          -0.546311          -0.378927           0.239268          -0.450723          -0.144696
hessian_block                4       7          -2.046710          -0.861437           0.771508          -0.176337          -0.148712           0.306209           0.738277          -0.208705          -0.708572
hessian_block                4       8          -0.443291          -0.379392          -0.198702           0.094073          -0.478814          -0.152890          -0.177729          -0.050009          -0.071003
hessian_block                4       9          -0.332870           0.622354           0.149878           0.089171          -2.314191          -1.059956           0.065434          -0.891258          -0.673137
hessian_block                4      10          -0.393152          -0.273431          -0.063758          -0.144552           0.992712           0.492454           0.104896           0.666038           0.310286
hessian_block                4      11          -1.787175          -0.116527           0.773208          -0.851824          -1.408489          -0.267820           0.928138           0.068025          -0.456891
hessian_block                4      12           0.079358           0.452393          -0.094734           0.457040           0.537463           0.220560           0.046482           0.360257           0.139312
hessian_block                5       5           5.346714          -0.292631          -1.087071          -0.292631           6.415191          -1.035762          -1.087071          -1.035762           7.494393
hessian_block                5       6           0.027809          -0.407264          -0.087683           0.074458          -0.317093           0.525045          -0.038758          -0.510609           0.496177
hessian_block                5       7          -0.284819           1.207250          -0.139505          -0.922761          -0.047100           0.335782           0.399711           0.643680          -0.810889
hessian_block                5       8          -0.120087           0.146134           0.503056           0.534076           0.041853          -0.456203           0.449425           0.563863          -0.741524
hessian_block                5       9          -1.445334          -0.481121           1.705844          -0.540624          -1.952895           2.234515           1.773025           2.357041          -3.187944
hessian_block                5      10           0.110201           0.551978           0.157830           0.173864           0.150884          -0.534111           0.190511          -0.142734          -0.838676
hessian_block                5      11           0.385330          -1.005781           0.225732           0.973726           0.214129          -0.015446          -0.511164          -0.226064           1.051602
hessian_block                5      12           0.511703           0.274740          -0.413598          -0.466463          -0.727030           0.175342          -0.103200          -0.913649           0.559277
hessian_block                6       6           5.517020           0.423365           1.928195           0.423365           6.091465           1.966822           1.928195           1.966822           8.657558
hessian_block                6       7           0.030872          -0.279541          -0.158475           0.576980           0.363130           0.860732          -0.227403           0.083436          -0.137029
hessian_block                6       8           0.037897           0.396992           0.326641          -0.050639           0.188692           0.300443          -0.206470          -0.195728          -0.701688
hessian_block                6       9           0.222911           0.198301           0.128607           0.309281           0.946135           0.335381          -0.198613          -0.081643          -0.487373
hessian_block                6      10          -1.814952          -1.338850          -2.934410          -1.182167          -2.426956          -3.227061          -2.192593          -2.611327          -4.354004
hessian_block                6      11           0.149699           0.490405          -0.024910          -0.778062           0.570566           0.196662          -0.147940           0.335594           0.527514
hessian_block                6      12           0.198302           0.156715           0.113859           0.210959          -0.058336           0.238429           0.641030           0.284767           0.748499
hessian_block                7       7           5.494640           0.388423           1.245987           0.388423           6.159052          -1.457887           1.245987          -1.457887           7.684385
hessian_block                7       8          -0.027327          -0.092203           0.008336           0.079030          -0.407362           0.832866           0.359400          -0.589841           0.970804
hessian_block                7       9           0.322420           0.629564          -0.224318          -0.717417          -0.332619          -0.429319           0.471134          -0.458380           1.144594
hessian_block                7      10           0.212832          -0.712258           0.091291           0.290914          -0.539858          -0.571081          -0.295343          -0.920350           0.176447
hessian_block                7      11          -1.910061           0.592146          -1.829599           0.661222          -2.356298           2.910292          -1.672657           2.200752          -3.300266
hessian_block                7      12           0.078289          -0.001787           0.408403          -0.580770           0.599044          -0.719943          -0.589162           0.358636          -1.026911
hessian_block                8       8           5.356907          -0.153546          -1.038990          -0.153546           5.698561           1.453816          -1.038990           1.453816           7.189122
hessian_block                8       9           0.515014          -0.607641          -0.255447           0.350024           0.065578          -0.312815          -0.074201           0.512687           0.972591
hessian_block                8      10          -0.126590          -0.041778           0.386952          -0.776126          -0.436677           0.288086          -0.489494          -0.081285           0.612037
hessian_block                8      11           0.202531          -0.229138          -0.248537           0.607396           1.123877           0.685615           0.264297          -0.557502          -0.863445
hessian_block                8      12          -1.392474           1.234451           1.819358           0.908052          -1.613346          -2.156237           1.548283          -2.016689          -3.208817
hessian_block                9       9           5.162716          -0.407954          -0.819932          -0.407954           6.571892          -1.540077          -0.819932          -1.540077           7.480606
hessian_block                9      10          -0.196600           0.205252           0.199070          -0.334591          -0.346037          -0.126874          -0.435825          -0.243771           0.394573
hessian_block                9      11          -0.102317           0.947440          -0.314299          -0.698030           0.524643           0.775391           0.361169           0.235182          -0.887981
hessian_block                9      12          -0.115668          -0.440594           0.649775           0.278787          -0.142196          -0.600717           0.094030           0.716470          -0.962322
hessian_block               10      10           5.718215           0.745391           1.821066           0.745391           7.360100           2.544802           1.821066           2.544802           8.354567
hessian_block               10      11          -0.081781          -0.201788           0.276797           0.414059          -1.423485          -0.176685          -0.077605          -0.562131          -0.745817
hessian_block               10      12          -0.236737          -0.070702          -0.154249          -0.553406          -0.135898          -0.008958          -0.564662           0.054473          -0.497094
hessian_block               11      11           5.538785           0.288977           1.016583           0.288977           7.928501          -1.351240           1.016583          -1.351240           7.494848
hessian_block               11      12           0.064917           0.003761          -0.257813           0.435284          -0.935134           0.543999           0.593704          -0.839823           0.563625
hessian_block               12      12           5.541191           0.018941          -1.151107           0.018941           5.762869           1.477141          -1.151107           1.477141           7.423203
hessian_block_lv             1       1          22.752311          -2.929415           4.588905          -2.929415          22.897056           2.644573           4.588905           2.644573           1.836971
hessian_block_lv_atom        1       1           0.299616           0.229082           0.050175          -0.669310          -0.169462          -0.203557          -0.376868           0.137673          -0.008753
hessian_block_lv_atom        1       2          -0.816743          -0.464447          -0.215601          -0.099863           0.118536           0.012734           0.068502          -0.297398          -0.045363
hessian_block_lv_atom        1       3          -0.928406          -0.442635          -0.254665           0.346084           0.403518           0.089488          -0.420020           0.025336          -0.035135
hessian_block_lv_atom        1       4           0.002012           0.083233           0.004369           0.879477           0.616357           0.274558           0.162844          -0.141728          -0.012647
hessian_block_lv_atom        1       5           0.361954           0.254039           0.391962          -0.214597           0.415222           0.257427          -2.488732          -2.123608          -1.473202
hessian_block_lv_atom        1       6           0.826526          -0.868665          -0.265819          -0.206508          -0.774723          -0.327824          -1.825696          -2.616576          -1.483572
hessian_block_lv_atom        1       7          -0.921529          -0.317965           0.070209          -0.740130          -1.054602          -0.534883           2.085149           1.846186           1.360451
hessian_block_lv_atom        1       8           0.473287          -0.048556          -0.292729           0.097088           0.111760           0.281336           1.833579           1.985344           1.381845
hessian_block_lv_atom        1       9           0.324536           0.091306          -0.229519          -0.194907          -0.819372          -0.385641           2.382113           2.079483           1.458457
hessian_block_lv_atom        1      10          -0.952235           0.827560           0.313946           0.325007           0.569171           0.398156           2.270136           2.853356           1.557988
hessian_block_lv_atom        1      11           1.057928           0.361467          -0.021272           0.361147           0.739482           0.375741          -2.298530          -1.964503          -1.422090
hessian_block_lv_atom        1      12           0.273056           0.295581           0.448942           0.116508          -0.155891          -0.237537          -1.392484          -1.783566          -1.277981
