# 
# This is the geometry file that corresponds to the current relaxation step.
# If you do not want this file to be written, set the "write_restart_geometry" flag to .false.
#  aims_uuid : 5F783D0E-2C93-48B0-A1F8-F05179E7E2B0                                
# 
lattice_vector      5.85485077      0.00000000      0.00000000
lattice_vector      0.00000000      5.95918510      0.00000000
lattice_vector      0.00000000      0.00000000      7.43170216
atom_frac       0.50241606      0.00207478      0.00191751 Pd
atom_frac       0.00206158      0.00208293      0.50265151 Pd
atom_frac       0.00214521      0.50244425      0.00196407 Pd
atom_frac       0.50249875      0.50245198      0.50260475 Pd
atom_frac       0.61428728      0.12006839      0.40431915 Se
atom_frac       0.89103224      0.88487989      0.90453096 Se
atom_frac       0.11390631      0.38453554      0.60073745 Se
atom_frac       0.39061954      0.62040722      0.10024555 Se
atom_frac       0.39066264      0.88489970      0.60073766 Se
atom_frac       0.11393859      0.12007567      0.10026376 Se
atom_frac       0.89100411      0.62040275      0.40432111 Se
atom_frac       0.61426913      0.38451833      0.90454796 Se
# 
# What follows is the current estimated Hessian matrix constructed by the BFGS algorithm.
# This is NOT the true Hessian matrix of the system.
# If you do not want this information here, switch it off using the "hessian_to_restart_geometry" keyword.
# 
trust_radius             0.0122098322
hessian_block                1       1           5.960818           0.055144          -2.192284           0.055144           6.464747          -1.051906          -2.192284          -1.051906           4.797400
hessian_block                1       2          -0.036163           0.515419           0.048025           0.300437           0.176108          -0.131229          -0.038783          -0.073213          -0.035261
hessian_block                1       3          -0.065635           0.535008           0.041713          -0.055790          -0.120619           0.107276          -0.172243           0.148030           0.035392
hessian_block                1       4           0.511313           0.185090          -0.080536           0.106288          -0.550216          -0.183668           0.067852          -0.067128          -0.026535
hessian_block                1       5          -0.040673          -0.447863          -0.189580          -0.344648           0.392959           0.356151          -0.269125           0.334538           0.275133
hessian_block                1       6          -1.771114          -0.096680           0.591086           0.430771          -0.409509          -0.273602           1.271323          -0.217771          -0.474332
hessian_block                1       7          -0.368959           0.376805           0.267038           0.103671           0.173971           0.089797           0.167960          -0.036302          -0.061502
hessian_block                1       8          -0.201429          -0.514181           0.329558          -0.335974          -1.871629           0.758737           0.098677           0.736957          -0.523393
hessian_block                1       9          -0.126660           0.004454           0.179084          -0.406548          -0.451977          -0.165741           0.041015          -0.262830          -0.064711
hessian_block                1      10          -2.306723           0.902950           1.061729           0.057258          -0.473072          -0.352342           0.720416          -0.470805          -0.574753
hessian_block                1      11           0.063604          -0.636440          -0.228826           0.245482           0.280925           0.041445           0.041564           0.399629           0.269493
hessian_block                1      12          -0.052469          -0.879710           0.172994          -0.156092          -1.964661           0.805079           0.263625           0.560802          -0.515068
hessian_block                2       2           6.082615           0.304303           2.292734           0.304303           7.260624           1.917005           2.292734           1.917005           5.115446
hessian_block                2       3           0.879336           0.833888           0.453298          -0.420390          -0.527754          -0.334628           0.187149           0.109559           0.121206
hessian_block                2       4           0.193481           0.638844           0.181332          -0.543482           0.662935           0.406116           0.025123           0.487391           0.222346
hessian_block                2       5          -2.084146           0.044289          -0.976675           0.525911          -0.724901          -0.153051          -0.531159          -0.085975          -0.628499
hessian_block                2       6          -0.544569          -0.070787           0.108724          -0.266898          -0.911259          -0.387270          -0.172483          -0.376416          -0.326581
hessian_block                2       7           0.017766          -0.702801          -0.381690          -0.448940          -1.542756          -0.740695          -0.471857          -1.499111          -0.816519
hessian_block                2       8          -0.232032          -0.569984          -0.313437           0.093346          -0.400633          -0.237510          -0.146030          -0.301653          -0.056623
hessian_block                2       9          -2.043524           0.406489          -0.941677           0.585086          -0.808763           0.257213          -1.318602          -0.316986          -0.726108
hessian_block                2      10           0.512672          -0.153922           0.005860           0.168607           0.976370           0.759682           0.143616           0.737317           0.525423
hessian_block                2      11          -0.603072          -0.685139          -0.176137          -0.418904          -3.227729          -1.715309           0.026489          -0.823101          -0.546265
hessian_block                2      12          -0.576450          -0.345616          -0.213549          -0.094059           0.714783           0.301658          -0.083005           0.283198           0.253299
hessian_block                3       3           6.562847          -0.546374           2.405966          -0.546374           6.305605          -1.267302           2.405966          -1.267302           4.848191
hessian_block                3       4           0.334470          -0.282091          -0.042374          -0.286290           0.069269          -0.078391           0.176238          -0.172262           0.047801
hessian_block                3       5          -0.583379           0.137750          -0.298690          -0.201869           0.478920           0.219079           0.267477           0.117284           0.290434
hessian_block                3       6          -0.744809           0.459744          -0.516934          -0.028461          -1.737448           0.711040          -0.703199           0.878823          -0.693684
hessian_block                3       7           0.097007           0.141984           0.220919           0.205663          -0.121422           0.115373          -0.586278           0.203409          -0.295803
hessian_block                3       8          -2.175960          -0.195575          -0.851740          -0.696489          -0.285852          -0.494857          -1.084249          -0.142445          -0.571838
hessian_block                3       9          -0.288889           0.343862           0.128085          -0.033246          -0.174949          -0.063677          -0.778554           0.376363          -0.234584
hessian_block                3      10           0.476407           0.536282           0.175862           1.140430          -2.215130           1.142658           0.234383           0.602168          -0.341165
hessian_block                3      11          -0.441016           0.081476          -0.191553          -0.525541           0.293224          -0.303906           0.342772           0.061511           0.263803
hessian_block                3      12          -2.484468          -0.200880          -1.044446          -0.396717          -0.316821          -0.237607          -0.769565          -0.430199          -0.367886
hessian_block                4       4           5.953205           0.195732          -1.948471           0.195732           7.025260           1.576226          -1.948471           1.576226           4.912771
hessian_block                4       5          -0.481789           0.625655           0.207193           0.081995          -2.337563          -1.169181          -0.026616          -1.388630          -0.653324
hessian_block                4       6          -0.024052           0.488434           0.152199          -0.251233          -0.469647          -0.277146           0.263249          -0.389371          -0.123733
hessian_block                4       7          -2.017845          -0.942068           0.678111          -0.196860          -0.144450           0.331658           0.730952          -0.107773          -0.601186
hessian_block                4       8          -0.282376          -0.212127          -0.183527           0.034599          -0.504007          -0.128709          -0.216769          -0.040482          -0.016088
hessian_block                4       9          -0.268427           0.689457           0.162665           0.119935          -2.209406          -0.990345           0.034523          -0.805453          -0.558777
hessian_block                4      10          -0.432203          -0.446715          -0.179335          -0.130463           0.915243           0.409223           0.101301           0.646138           0.320942
hessian_block                4      11          -1.810879          -0.017264           0.881914          -0.844613          -1.380233          -0.256183           0.898307          -0.027657          -0.536867
hessian_block                4      12          -0.108988           0.342381          -0.039962           0.449062           0.569840           0.256455           0.105103           0.392944           0.114515
hessian_block                5       5           5.341177          -0.407743          -1.203452          -0.407743           6.352088          -0.904764          -1.203452          -0.904764           7.697709
hessian_block                5       6           0.279935          -0.437373          -0.409201           0.195168          -0.175987           0.383530           0.088114          -0.418452           0.475820
hessian_block                5       7          -0.388365           1.155359           0.055462          -0.916226           0.064142           0.352725           0.556686           0.560881          -1.056619
hessian_block                5       8           0.135672           0.204216           0.420187           0.506117          -0.029434          -0.513827           0.459573           0.538003          -0.827018
hessian_block                5       9          -1.345645          -0.408678           1.695141          -0.383741          -1.874473           2.102451           1.902500           2.235691          -3.458114
hessian_block                5      10          -0.151446           0.568034           0.462392           0.036876          -0.062457          -0.477721           0.152082          -0.243753          -0.851380
hessian_block                5      11           0.527881          -0.950358           0.012431           1.029943           0.206544          -0.056191          -0.667287          -0.107914           1.243081
hessian_block                5      12           0.356691           0.215152          -0.473537          -0.420227          -0.642814           0.136581          -0.030461          -0.912691           0.594640
hessian_block                6       6           5.706612           0.396167           1.821633           0.396167           5.811737           1.834466           1.821633           1.834466           8.644195
hessian_block                6       7          -0.047506          -0.126809          -0.039500           0.464913           0.184100           0.774699           0.046778           0.139431          -0.163456
hessian_block                6       8          -0.129992           0.361609           0.147813           0.129201           0.256205           0.404155          -0.071678          -0.200011          -0.721312
hessian_block                6       9           0.090776           0.112947           0.003106           0.275588           0.801016           0.195711           0.155730           0.015392          -0.483474
hessian_block                6      10          -1.982666          -1.296928          -2.830744          -1.006202          -2.073848          -3.062277          -2.043588          -2.461674          -4.339250
hessian_block                6      11           0.241641           0.330856          -0.144666          -0.749383           0.576687           0.223963          -0.405456           0.190455           0.534986
hessian_block                6      12           0.491653           0.142810           0.295355           0.146379          -0.205019           0.152472           0.570709           0.325389           0.772686
hessian_block                7       7           5.454917           0.512175           1.110342           0.512175           6.083229          -1.521658           1.110342          -1.521658           7.936386
hessian_block                7       8          -0.031893          -0.125023           0.031806           0.022082          -0.408712           0.923986           0.311730          -0.622524           1.063524
hessian_block                7       9           0.366205           0.593889          -0.255770          -0.663545          -0.438672          -0.359905           0.296187          -0.511097           1.437475
hessian_block                7      10           0.274903          -0.593707          -0.164374           0.059446          -0.348797          -0.523090          -0.446311          -0.855255           0.243703
hessian_block                7      11          -1.872178           0.451755          -1.676877           0.660066          -2.375533           2.947940          -1.481940           2.209107          -3.524616
hessian_block                7      12           0.081856          -0.051308           0.510633          -0.492695           0.521926          -0.727810          -0.590346           0.377866          -1.059524
hessian_block                8       8           4.761555           0.082842          -0.917895           0.082842           5.654024           1.437312          -0.917895           1.437312           7.206614
hessian_block                8       9           0.236211          -0.515282          -0.216069           0.143624           0.182833          -0.258876           0.055841           0.573769           1.067088
hessian_block                8      10           0.063994          -0.229554           0.262108          -0.599622          -0.529067           0.320404          -0.398149          -0.122121           0.648523
hessian_block                8      11           0.174491          -0.145026          -0.196712           0.576208           1.166743           0.692472           0.321987          -0.659616          -0.967985
hessian_block                8      12          -0.752330           1.054136           1.717314           0.848013          -1.583447          -2.159157           1.357559          -1.941316          -3.199628
hessian_block                9       9           5.030765          -0.541156          -0.801053          -0.541156           6.443108          -1.409533          -0.801053          -1.409533           7.801155
hessian_block                9      10          -0.049957           0.257466          -0.138222          -0.183975          -0.103562          -0.130438          -0.369570          -0.121120           0.453343
hessian_block                9      11          -0.172258           0.880122          -0.113125          -0.728936           0.516469           0.821542           0.408958           0.149958          -1.155182
hessian_block                9      12           0.137313          -0.233585           0.663758           0.226927          -0.234604          -0.586419           0.007101           0.663864          -0.976247
hessian_block               10      10           5.864458           0.554298           1.681805           0.554298           6.933788           2.405987           1.681805           2.405987           8.323574
hessian_block               10      11          -0.155043           0.054061           0.426227           0.382591          -1.415818          -0.185207           0.160872          -0.520142          -0.762728
hessian_block               10      12          -0.548485          -0.150714          -0.202212          -0.480797           0.043374           0.068326          -0.497954           0.028059          -0.544367
hessian_block               11      11           5.502752           0.299398           0.815434           0.299398           7.952107          -1.382492           0.815434          -1.382492           7.643298
hessian_block               11      12           0.109986           0.073687          -0.461697           0.336563          -0.946363           0.510262           0.591890          -0.828076           0.640847
hessian_block               12      12           4.911600           0.033642          -0.924654           0.033642           5.690830           1.480160          -0.924654           1.480160           7.388599
hessian_block_lv             1       1          23.315684          -3.668408           4.872290          -3.668408          23.658179           2.430187           4.872290           2.430187           1.897869
hessian_block_lv_atom        1       1           0.242450           0.365058           0.053526          -0.417511          -0.626794          -0.169666          -0.032767          -0.198765           0.038703
hessian_block_lv_atom        1       2          -0.527977          -0.893214          -0.219432           0.147014          -0.224433          -0.002420          -0.000591          -0.305578          -0.110399
hessian_block_lv_atom        1       3          -0.585287          -0.994266          -0.248680           0.258506           0.473794           0.113043          -0.042424          -0.404158          -0.015267
hessian_block_lv_atom        1       4           0.089359           0.094318          -0.007727           0.759432           0.795651           0.258929           0.040987          -0.053954          -0.045866
hessian_block_lv_atom        1       5           0.296910           0.447366           0.367298           0.123420          -0.025953           0.257060          -1.845289          -2.766365          -1.465075
hessian_block_lv_atom        1       6           0.091510          -0.091843          -0.290622          -0.496100          -0.270057          -0.330251          -1.878084          -2.462672          -1.410316
hessian_block_lv_atom        1       7          -0.555629          -0.811818           0.114476          -0.727975          -0.989229          -0.531182           1.426067           2.551692           1.343163
hessian_block_lv_atom        1       8          -0.037136           0.219140          -0.235076           0.092110           0.241139           0.271956           1.591598           2.279841           1.355593
hessian_block_lv_atom        1       9           0.108353           0.204641          -0.204672          -0.594879          -0.395730          -0.380432           1.717724           2.814935           1.422060
hessian_block_lv_atom        1      10          -0.219433           0.047306           0.319430           0.538209           0.171629           0.354779           2.057469           2.950319           1.533712
hessian_block_lv_atom        1      11           0.592634           0.966145          -0.048629           0.295760           0.844977           0.398224          -1.621668          -2.570941          -1.428747
hessian_block_lv_atom        1      12           0.504247           0.447167           0.400107           0.022011           0.005003          -0.240041          -1.413028          -1.834354          -1.217563
symmetry_n_params 39 3 36
symmetry_params a1 b2 c3 x0 x1 x2 x3 x4 x5 x6 x7 x8 x9 x10 x11 x12 x13 x14 x15 x16 x17 x18 x19 x20 x21 x22 x23 x24 x25 x26 x27 x28 x29 x30 x31 x32 x33 x34 x35
symmetry_lv a1 , 0 , 0 
symmetry_lv 0 , b2 , 0 
symmetry_lv 0 , 0 , c3
symmetry_frac x0 , x1 , x2
symmetry_frac x3 , x4 , x5
symmetry_frac x6 , x7 , x8
symmetry_frac x9 , x10 , x11
symmetry_frac x12 , x13 , x14
symmetry_frac x15 , x16 , x17
symmetry_frac x18 , x19 , x20
symmetry_frac x21 , x22 , x23
symmetry_frac x24 , x25 , x26
symmetry_frac x27 , x28 , x29
symmetry_frac x30 , x31 , x32
symmetry_frac x33 , x34 , x35
