# 
# This is the geometry file that corresponds to the current relaxation step.
# If you do not want this file to be written, set the "write_restart_geometry" flag to .false.
#  aims_uuid : F76A012B-13DF-4FA9-A580-C197324E2CF8                                
# 
lattice_vector      3.71994073      0.00000000      0.00000000
lattice_vector     -1.85997037      3.22156318      0.00000000
lattice_vector      0.00000000      0.00000000    101.65202401
atom_frac       0.00060579      0.66719364      0.50132352 Se
atom_frac       0.33415157      0.33419116      0.47530290 Se
atom_frac       0.66738114      0.00075370      0.48831503 Pt
# 
# What follows is the current estimated Hessian matrix constructed by the BFGS algorithm.
# This is NOT the true Hessian matrix of the system.
# If you do not want this information here, switch it off using the "hessian_to_restart_geometry" keyword.
# 
trust_radius             0.0489263980
hessian_block                1       1           1.139894          -0.685323          -6.481467          -0.685323           0.985248           2.602721          -6.481467           2.602721        1092.345948
hessian_block                1       2           0.032701           0.081373           2.133880           0.045363           0.049078          -0.159887          -1.356983           2.319437           5.880870
hessian_block                1       3          -0.928588           0.481946           4.347587           0.517956          -0.790319          -2.442834           7.838450          -4.922158        -919.073881
hessian_block                2       2           1.077268          -0.578922           0.698879          -0.578922           1.060736          -1.644651           0.698879          -1.644651         930.083492
hessian_block                2       3          -0.865962           0.411556           0.658104           0.375546          -0.865807          -0.674786          -2.832759           1.804538        -756.811424
hessian_block                3       3           2.038557          -1.015506          -5.005691          -1.015506           1.900133           3.117620          -5.005691           3.117620        1855.038242
hessian_block_lv             1       1          18.326269           0.096007           0.000000           0.096007           0.004686           0.000000           0.000000           0.000000           0.000000
hessian_block_lv_atom        1       1          -0.613566           0.007454           0.000000           0.363067          -0.009653           0.000000          74.643606           0.897607           0.000000
hessian_block_lv_atom        1       2           0.028928          -0.000331           0.000000           0.039702           0.004626           0.000000         -50.925656          -1.404928           0.000000
hessian_block_lv_atom        1       3           0.584639          -0.007123           0.000000          -0.402769           0.005026           0.000000         -23.717951           0.507321           0.000000
