# 
# This is the geometry file that corresponds to the current relaxation step.
# If you do not want this file to be written, set the "write_restart_geometry" flag to .false.
#  aims_uuid : 97A4ACCA-96B3-4C58-ACDE-E64782EB89CE                                
# 
lattice_vector      5.69525416      0.00000000      0.00000000
lattice_vector      0.00000000      5.89256855      0.00000000
lattice_vector      0.00000000      0.00000000    101.32647281
atom_frac       0.71682665     -0.00269687      0.49985687 Se
atom_frac       0.60860280      0.61639911      0.49231426 Pd
atom_frac       0.00043144      0.49724901      0.49985600 Se
atom_frac       0.10856264      0.11644720      0.49231384 Pd
atom_frac       0.21687756      0.73551613      0.48478213 Se
atom_frac       0.50037882      0.23556974      0.48478293 Se
# 
# What follows is the current estimated Hessian matrix constructed by the BFGS algorithm.
# This is NOT the true Hessian matrix of the system.
# If you do not want this information here, switch it off using the "hessian_to_restart_geometry" keyword.
# 
trust_radius             0.1120686173
hessian_block                1       1           0.846092           0.001960           3.362165           0.001960           1.206843          -2.885934           3.362165          -2.885934         268.497137
hessian_block                1       2           0.004069          -0.154998          -0.776950          -0.164053          -0.601940          -4.350224          -0.011654          -3.430812         -52.307121
hessian_block                1       3          -0.061300           0.032973          -1.888219           0.031472           0.248320          -2.061119           1.684501          -0.967139          76.029383
hessian_block                1       4          -0.344141          -0.064539           2.956294          -0.163394          -0.020017           0.504001           1.737637          -0.878661         -52.251791
hessian_block                1       5           0.043977           0.089185           1.936440           0.088107          -0.203226           1.863981          -1.665537           2.096020         -43.764611
hessian_block                1       6          -0.199697           0.095419          -5.589731           0.205908          -0.326011           6.929294          -5.107112           6.066525        -105.136190
hessian_block                2       2           1.245800           0.022887           5.042401           0.022887           1.420563           3.719553           5.042401           3.719553         228.160388
hessian_block                2       3          -0.378018           0.162924          -1.850661           0.284780          -0.268216           2.275355          -1.071543          -1.653826         -35.929931
hessian_block                2       4          -0.211812          -0.014137          -1.388857          -0.278343           0.046753          -0.742070          -1.561809           1.659964          71.528111
hessian_block                2       5          -0.417609          -0.090751          -1.701212           0.281400           0.022247           1.940738          -0.968679           1.677254         -52.181946
hessian_block                2       6           0.046571           0.083130          -0.090018          -0.155726          -0.315437          -3.762765          -0.663420          -1.052722         -68.202694
hessian_block                3       3           0.867148          -0.044836          -3.952983          -0.044836           1.407982          -3.025960          -3.952983          -3.025960         259.727988
hessian_block                3       4          -0.000629          -0.121638           0.444834           0.185271          -0.629519          -3.353929           1.413034          -2.691024         -46.630115
hessian_block                3       5          -0.173876          -0.135653           4.983343          -0.279595          -0.192176           6.391786           4.675052           5.183443        -116.261225
hessian_block                3       6           0.035676          -0.014125          -2.088151          -0.056738          -0.262420           2.609068           1.603778           0.319304         -45.869294
hessian_block                4       4           1.195028           0.239937          -4.756915           0.239937           1.401933           4.426604          -4.756915           4.426604         211.852005
hessian_block                4       5           0.020242           0.152817           0.800526          -0.046950          -0.550425          -2.150924           0.127470          -2.334497         -43.960503
hessian_block                4       6          -0.369687          -0.136288           2.367527           0.007328           0.055246          -0.365959           2.617173           1.499892         -49.470901
hessian_block                5       5           0.952061          -0.047910          -4.060663          -0.047910           1.160474          -4.701536          -4.060663          -4.701536         264.462082
hessian_block                5       6          -0.135795           0.004949           1.892357           0.032313           0.067077          -1.920684          -1.958434          -3.344045          82.773009
hessian_block                6       6           0.911932          -0.033085           3.508015          -0.033085           1.085516          -3.488954           3.508015          -3.488954         276.972875
hessian_block_lv             1       1          18.095538           9.286030          -0.469203           9.286030          10.417555          -0.056818          -0.469203          -0.056818           0.071767
hessian_block_lv_atom        1       1          -0.100288           0.184331          -0.004323          -0.519982           0.151765          -0.026267           9.141855           8.925385           0.714409
hessian_block_lv_atom        1       2          -0.185311          -0.208744          -0.018452           0.063928          -0.222655           0.004996          -4.596472          -5.840556          -0.543424
hessian_block_lv_atom        1       3           0.149439          -0.172657           0.006880          -0.832316          -0.207768          -0.061078           7.830462           7.181353           0.557766
hessian_block_lv_atom        1       4           0.097559           0.193816           0.014507           0.213955           0.133136           0.020951          -1.857245          -4.394699          -0.279563
hessian_block_lv_atom        1       5          -0.066853           0.206629          -0.003540           0.382444          -0.106943           0.013446          -5.875905          -3.774789          -0.298838
hessian_block_lv_atom        1       6           0.105454          -0.203376           0.004928           0.691970           0.252464           0.047952          -4.642694          -2.096693          -0.150350
