# 
# This is the geometry file that corresponds to the current relaxation step.
# If you do not want this file to be written, set the "write_restart_geometry" flag to .false.
#  aims_uuid : 526217A3-DA2E-4CEB-ABD6-24D0681A1182                                
# 
lattice_vector      3.28853453      0.00000000      0.00000000
lattice_vector     -1.64426726      2.84795444      0.00000000
lattice_vector      0.00000000      0.00000000    102.29760212
atom_frac       0.00004310      0.00022881      0.50022072 Se
atom_frac       0.33350322      0.66687092      0.48371990 W
atom_frac       0.00008055      0.00015400      0.46721879 Se
# 
# What follows is the current estimated Hessian matrix constructed by the BFGS algorithm.
# This is NOT the true Hessian matrix of the system.
# If you do not want this information here, switch it off using the "hessian_to_restart_geometry" keyword.
# 
trust_radius             0.1000000015
hessian_block                1       1           1.790604          -0.464926         -15.314891          -0.464926           1.309325         -15.465423         -15.314891         -15.465423        2934.417011
hessian_block                1       2          -2.389703           0.254794          38.961505           0.313943          -1.391116          21.274759          17.890597           8.016683       -2226.037875
hessian_block                1       3           0.819605           0.099880         -23.646614           0.040730           0.302296          -5.809336          -2.575706           7.448740        -489.003232
hessian_block                2       2           4.865494          -0.524363         -35.821253          -0.524363           2.773713         -13.141759         -35.821253         -13.141759        3952.865669
hessian_block                2       3          -2.255285           0.100168          17.930656           0.159317          -1.162091           5.125076          -3.140252          -8.133000       -1507.451890
hessian_block                3       3           1.656186          -0.310300           5.715957          -0.310300           1.080301           0.684260           5.715957           0.684260        2215.831026
hessian_block_lv             1       1          32.723881           0.568408           0.000000           0.568408           0.021825           0.000000           0.000000           0.000000           0.000000
hessian_block_lv_atom        1       1          -2.172085          -0.053274           0.000000          -1.267196          -0.049781           0.000000         166.871780           6.699491           0.000000
hessian_block_lv_atom        1       2           4.903699           0.135003           0.000000           2.081539           0.069770           0.000000         -60.381860          -2.264919           0.000000
hessian_block_lv_atom        1       3          -2.731614          -0.081729           0.000000          -0.814343          -0.019989           0.000000        -106.489920          -4.434572           0.000000
