#=======================================================
# FHI-aims file: ./geometry.in
# Created using the Atomic Simulation Environment (ASE)
# Thu Mar 19 17:13:21 2020
#=======================================================
lattice_vector -1.8920999999999999 1.8920999999999999 4.7572999999999999 
lattice_vector 1.8920999999999999 -1.8920999999999999 4.7572999999999999 
lattice_vector 1.8920999999999999 1.8920999999999999 -4.7572999999999999 
atom_frac 0.7500000000000002 0.2500000000000001 0.5000000000000001 Ti
atom_frac 0.0000000000000000 -0.0000000000000000 0.0000000000000000 Ti
atom_frac 0.7918999999999998 0.7919000000000002 0.0000000000000001 O
atom_frac 0.5419000000000000 0.0419000000000000 0.5000000000000000 O
atom_frac 0.9581000000000001 0.4581000000000001 0.5000000000000001 O
atom_frac 0.2081000000000000 0.2081000000000000 0.0000000000000000 O
