# 
# This is the geometry file that corresponds to the current relaxation step.
# If you do not want this file to be written, set the "write_restart_geometry" flag to .false.
#  aims_uuid : 4FDDF0AC-259F-49BD-A0F4-FDBB695E74A9                                
# 
lattice_vector      3.72728450      0.00000000      0.00000000
lattice_vector     -1.86364225      3.22792306      0.00000000
lattice_vector      0.00000000      0.00000000    101.09116272
atom_frac       0.00031517      0.66693121      0.50083741 Se
atom_frac       0.33374027      0.33373067      0.47476323 Se
atom_frac       0.66702766      0.00042122      0.48779801 Pt
# 
# What follows is the current estimated Hessian matrix constructed by the BFGS algorithm.
# This is NOT the true Hessian matrix of the system.
# If you do not want this information here, switch it off using the "hessian_to_restart_geometry" keyword.
# 
trust_radius             0.0287041580
hessian_block                1       1           1.153402          -0.744779           1.103793          -0.744779           1.521534          -8.594163           1.103793          -8.594163        1258.064196
hessian_block                1       2           0.000916           0.002516           5.518247           0.022865           0.022678          -3.313417           0.579146           0.842774        -207.923138
hessian_block                1       3          -0.910311           0.620259          -6.622040           0.599911          -1.300205          11.907580          -1.682939           7.751390        -870.988120
hessian_block                2       2           1.162242          -0.630570          -2.635553          -0.630570           1.101114           1.026774          -2.635553           1.026774         981.787397
hessian_block                2       3          -0.919150           0.485702           2.056407           0.506051          -0.879785          -1.869548          -2.882694           2.286642        -594.711321
hessian_block                3       3           2.073468          -1.227965           4.565633          -1.227965           2.423997         -10.038032           4.565633         -10.038032        1644.852379
hessian_block_lv             1       1          18.638993           0.248740           0.000000           0.248740           0.009283           0.000000           0.000000           0.000000           0.000000
hessian_block_lv_atom        1       1          -0.052376           0.009596           0.000000          -0.280600          -0.037003           0.000000          80.559595           2.761480           0.000000
hessian_block_lv_atom        1       2           0.469052           0.016882           0.000000          -0.186237          -0.012260           0.000000         -72.142684          -1.821748           0.000000
hessian_block_lv_atom        1       3          -0.416676          -0.026478           0.000000           0.466837           0.049262           0.000000          -8.416911          -0.939731           0.000000
