# 
# This is the geometry file that corresponds to the current relaxation step.
# If you do not want this file to be written, set the "write_restart_geometry" flag to .false.
#  aims_uuid : 9C07995D-5342-4876-A8C8-227BFEC7AB29                                
# 
lattice_vector      3.28809692      0.00000000      0.00000000
lattice_vector     -1.64404846      2.84757546      0.00000000
lattice_vector      0.00000000      0.00000000    102.81238514
atom_frac       0.00007349      0.00015384      0.50004774 Se
atom_frac       0.33341100      0.66681765      0.48362650 W
atom_frac       0.00007810      0.00015372      0.46720561 Se
# 
# What follows is the current estimated Hessian matrix constructed by the BFGS algorithm.
# This is NOT the true Hessian matrix of the system.
# If you do not want this information here, switch it off using the "hessian_to_restart_geometry" keyword.
# 
trust_radius             0.0250000004
hessian_block                1       1           1.137481          -0.574710          -1.360664          -0.574710           1.170116          -4.948859          -1.360664          -4.948859        2266.559712
hessian_block                1       2          -1.059755           0.532276           3.137025           0.498120          -1.169840          11.143516           4.393267           2.385427       -2060.095453
hessian_block                1       3           0.142779          -0.067819          -1.776361          -0.033663           0.220230          -6.194657          -3.032603           2.563432          12.911645
hessian_block                2       2           2.465560          -1.246531          -6.490418          -1.246531           2.647358          -7.847609          -6.490418          -7.847609        4538.809344
hessian_block                2       3          -1.185300           0.638158           2.097152           0.604002          -1.257013           5.462182           3.353394          -3.295907       -2259.337987
hessian_block                3       3           1.263026          -0.680592          -0.320791          -0.680592           1.257288           0.732475          -0.320791           0.732475        2465.802246
hessian_block_lv             1       1          24.197362           0.170070           0.000000           0.170070           0.012255           0.000000           0.000000           0.000000           0.000000
hessian_block_lv_atom        1       1           0.600558           0.001991           0.000000          -0.381009          -0.013010           0.000000           7.879366           3.934404           0.000000
hessian_block_lv_atom        1       2          -0.540280           0.000557           0.000000           0.412928           0.025737           0.000000         121.538715          -0.398024           0.000000
hessian_block_lv_atom        1       3          -0.060277          -0.002548           0.000000          -0.031919          -0.012728           0.000000        -129.418081          -3.536380           0.000000
