# 
# This is the geometry file that corresponds to the current relaxation step.
# If you do not want this file to be written, set the "write_restart_geometry" flag to .false.
#  aims_uuid : 1FBFAD41-567B-4CF1-A35A-755D8DFD197E                                
# 
lattice_vector      3.78017857      0.00000000      0.00000000
lattice_vector     -1.89008928      3.27373067      0.00000000
lattice_vector      0.00000000      0.00000000      4.95358563
atom_frac      -0.00029259     -0.00030469     -0.00023947 Pt
atom_frac       0.33320587      0.66623158      0.25934201 Se
atom_frac       0.66633368      0.33332008      0.74014442 Se
# 
# What follows is the current estimated Hessian matrix constructed by the BFGS algorithm.
# This is NOT the true Hessian matrix of the system.
# If you do not want this information here, switch it off using the "hessian_to_restart_geometry" keyword.
# 
trust_radius             0.1000000015
hessian_block                1       1           9.039831          -0.238496           0.585654          -0.238496           7.063086          -0.490273           0.585654          -0.490273          24.291120
hessian_block                1       2          -3.456752          -0.295645          -0.463899          -0.062587          -2.405822           0.686866           0.327838           0.572250         -10.351617
hessian_block                1       3          -3.719996          -0.397401          -0.121755          -0.630459          -2.794182          -0.196593          -0.913492          -0.081977         -10.866493
hessian_block                2       2           5.346532          -1.345008           0.634027          -1.345008           5.650252          -1.296363           0.634027          -1.296363          15.491315
hessian_block                2       3          -0.026696           0.476053          -0.961866           0.709111          -1.381347           0.724113          -0.170128           0.609497          -2.066688
hessian_block                3       3           5.609775          -1.010194           1.083620          -1.010194           6.038612          -0.527520           1.083620          -0.527520          16.006191
hessian_block_lv             1       1          35.067203           5.822204           0.000000           5.822204           2.040234           0.000000           0.000000           0.000000           0.000000
hessian_block_lv_atom        1       1           0.557017           0.287170           0.000000           0.297529           0.174671           0.000000           0.380438           0.087327           0.000000
hessian_block_lv_atom        1       2           1.520728           0.213479           0.000000           2.255794           0.206265           0.000000           3.190379           2.604389           0.000000
hessian_block_lv_atom        1       3          -2.077745          -0.500649           0.000000          -2.553322          -0.380936           0.000000          -3.570817          -2.691717           0.000000
