# 
# This is the geometry file that corresponds to the current relaxation step.
# If you do not want this file to be written, set the "write_restart_geometry" flag to .false.
#  aims_uuid : 43ECB9C6-7E37-4983-A33C-A694EC8A2C17                                
# 
lattice_vector      3.71989955      0.00000000      0.00000000
lattice_vector     -1.85994977      3.22152751      0.00000000
lattice_vector      0.00000000      0.00000000    101.66074870
atom_frac       0.00064000      0.66722945      0.50131830 Se
atom_frac       0.33412618      0.33417223      0.47529792 Se
atom_frac       0.66736206      0.00072658      0.48831025 Pt
# 
# What follows is the current estimated Hessian matrix constructed by the BFGS algorithm.
# This is NOT the true Hessian matrix of the system.
# If you do not want this information here, switch it off using the "hessian_to_restart_geometry" keyword.
# 
trust_radius             0.0470704230
hessian_block                1       1           1.176287          -0.705862          -6.193431          -0.705862           1.000921           2.934744          -6.193431           2.934744        1067.411090
hessian_block                1       2           0.018979           0.112160           2.229974           0.076985           0.068092          -0.613374          -1.237465           1.393779         -18.616932
hessian_block                1       3          -0.951260           0.471698           3.963457           0.506874          -0.825006          -2.321370           7.430897          -4.328524        -869.641221
hessian_block                2       2           1.087753          -0.613924           0.926318          -0.613924           1.035670          -2.096957           0.926318          -2.096957         945.825094
hessian_block                2       3          -0.862726           0.414936           0.311147           0.379761          -0.859756           0.703177          -3.156292           2.710331        -748.055225
hessian_block                3       3           2.057992          -1.008638          -4.274605          -1.008638           1.928769           1.618193          -4.274605           1.618193        1796.849383
hessian_block_lv             1       1          18.490494           0.096018           0.000000           0.096018           0.004701           0.000000           0.000000           0.000000           0.000000
hessian_block_lv_atom        1       1          -0.671360           0.009130           0.000000           0.436990          -0.009453           0.000000          73.989569           0.903184           0.000000
hessian_block_lv_atom        1       2           0.027372          -0.001716           0.000000           0.027379           0.005629           0.000000         -53.215357          -1.435421           0.000000
hessian_block_lv_atom        1       3           0.643989          -0.007414           0.000000          -0.464369           0.003824           0.000000         -20.774212           0.532237           0.000000
