#=======================================================
# FHI-aims file: ./geometry.in
# Created using the Atomic Simulation Environment (ASE)
# Thu Mar 19 17:13:24 2020
#=======================================================
lattice_vector 3.1600000017498795 0.0000000000000000 0.0000000000000000 
lattice_vector -1.5800000008749397 2.7366402774742662 0.0000000000000000 
lattice_vector 0.0000000000000000 0.0000000000000000 103.1610999999999763 
atom_frac 0.6666666666666667 0.3333333333333334 0.4846788178877504 Mo
atom_frac 0.0000000000000000 0.0000000000000000 0.4999999999999999 S
atom_frac 0.0000000000000000 0.0000000000000001 0.4693576357755009 S
