# 
# This is the geometry file that corresponds to the current relaxation step.
# If you do not want this file to be written, set the "write_restart_geometry" flag to .false.
#  aims_uuid : EE55770D-0A02-4BFA-A8F3-6C54B8CE4646                                
# 
lattice_vector      5.69524714      0.00000000      0.00000000
lattice_vector      0.00000000      5.89257013      0.00000000
lattice_vector      0.00000000      0.00000000    101.32627092
atom_frac       0.71682577     -0.00269647      0.49985689 Se
atom_frac       0.60860335      0.61639920      0.49231426 Pd
atom_frac       0.00043233      0.49724835      0.49985603 Se
atom_frac       0.10856205      0.11644707      0.49231372 Pd
atom_frac       0.21687757      0.73551547      0.48478206 Se
atom_frac       0.50037870      0.23557054      0.48478289 Se
# 
# What follows is the current estimated Hessian matrix constructed by the BFGS algorithm.
# This is NOT the true Hessian matrix of the system.
# If you do not want this information here, switch it off using the "hessian_to_restart_geometry" keyword.
# 
trust_radius             0.1120679062
hessian_block                1       1           0.846354           0.002178           3.357455           0.002178           1.207993          -2.878436           3.357455          -2.878436         268.435772
hessian_block                1       2           0.003646          -0.154477          -0.771539          -0.164116          -0.602673          -4.353856          -0.003571          -3.444801         -52.470965
hessian_block                1       3          -0.061468           0.032303          -1.891432           0.031646           0.249473          -2.058044           1.680930          -0.960160          75.955016
hessian_block                1       4          -0.343715          -0.063946           2.963316          -0.163591          -0.021916           0.491579           1.756101          -0.879537         -52.099192
hessian_block                1       5           0.044090           0.089306           1.932486           0.088189          -0.202772           1.864936          -1.671875           2.099316         -43.667537
hessian_block                1       6          -0.199906           0.094637          -5.590286           0.205694          -0.326134           6.933822          -5.119040           6.063618        -105.086288
hessian_block                2       2           1.246091           0.023406           5.026143           0.023406           1.420116           3.743042           5.026143           3.743042         228.270462
hessian_block                2       3          -0.378122           0.163445          -1.841216           0.285016          -0.267657           2.260170          -1.070590          -1.651224         -36.055350
hessian_block                2       4          -0.210860          -0.016080          -1.394458          -0.279824           0.047985          -0.720226          -1.570057           1.646116          71.675702
hessian_block                2       5          -0.417657          -0.090340          -1.705906           0.281644           0.022056           1.937014          -0.961785           1.669563         -52.098146
hessian_block                2       6           0.045903           0.083685          -0.080992          -0.155766          -0.315857          -3.775199          -0.652172          -1.053641         -68.254897
hessian_block                3       3           0.867554          -0.045241          -3.956310          -0.045241           1.409277          -3.024319          -3.956310          -3.024319         259.623913
hessian_block                3       4          -0.001073          -0.120499           0.457890           0.185922          -0.632523          -3.369102           1.410515          -2.683475         -46.412246
hessian_block                3       5          -0.173874          -0.135567           4.979805          -0.279626          -0.191293           6.394094           4.673024           5.190054        -116.191089
hessian_block                3       6           0.035982          -0.015356          -2.091724          -0.056803          -0.263306           2.610711           1.605419           0.315615         -45.853438
hessian_block                4       4           1.193630           0.240149          -4.773215           0.240149           1.405674           4.442115          -4.773215           4.442115         211.665583
hessian_block                4       5           0.020411           0.152242           0.809446          -0.047097          -0.551470          -2.150520           0.130224          -2.343154         -44.082540
hessian_block                4       6          -0.369394          -0.134899           2.367210           0.007473           0.056221          -0.374700           2.616242           1.498788         -49.680500
hessian_block                5       5           0.951855          -0.047681          -4.055264          -0.047681           1.160836          -4.699821          -4.055264          -4.699821         264.323419
hessian_block                5       6          -0.135825           0.004571           1.885675           0.032040           0.066615          -1.915958          -1.960567          -3.345703          82.782699
hessian_block                6       6           0.912240          -0.032639           3.510117          -0.032639           1.086432          -3.478676           3.510117          -3.478676         277.159231
hessian_block_lv             1       1          18.082203           9.267695          -0.470605           9.267695          10.398513          -0.058305          -0.470605          -0.058305           0.071638
hessian_block_lv_atom        1       1          -0.101207           0.184204          -0.004387          -0.519766           0.153814          -0.026223           9.156140           8.944694           0.716334
hessian_block_lv_atom        1       2          -0.184404          -0.206963          -0.018320           0.062750          -0.225677           0.004813          -4.586090          -5.864972          -0.543285
hessian_block_lv_atom        1       3           0.149772          -0.173889           0.006848          -0.832535          -0.206978          -0.061090           7.850187           7.213066           0.560338
hessian_block_lv_atom        1       4           0.096868           0.193810           0.014452           0.215255           0.133064           0.021053          -1.879601          -4.400693          -0.281948
hessian_block_lv_atom        1       5          -0.066528           0.206165          -0.003538           0.381387          -0.108089           0.013354          -5.895573          -3.784037          -0.300712
hessian_block_lv_atom        1       6           0.105498          -0.203326           0.004946           0.692909           0.253867           0.048093          -4.645063          -2.108058          -0.150727
