# 
# This is the geometry file that corresponds to the current relaxation step.
# If you do not want this file to be written, set the "write_restart_geometry" flag to .false.
#  aims_uuid : D5E385ED-1CC5-4D51-A53C-E668F4871A72                                
# 
lattice_vector      3.28795771      0.00000000      0.00000000
lattice_vector     -1.64397885      2.84745490      0.00000000
lattice_vector      0.00000000      0.00000000     13.23012839
atom_frac       0.32897735      0.66435283      0.25206686 W
atom_frac       0.67519925      0.33983210      0.75212468 W
atom_frac       0.34183205      0.67304038      0.87969189 Se
atom_frac       0.66236404      0.33115152      0.37963805 Se
atom_frac       0.66248677      0.33107550      0.12450086 Se
atom_frac       0.34172514      0.67313227      0.62456225 Se
# 
# What follows is the current estimated Hessian matrix constructed by the BFGS algorithm.
# This is NOT the true Hessian matrix of the system.
# If you do not want this information here, switch it off using the "hessian_to_restart_geometry" keyword.
# 
trust_radius             0.0026123755
hessian_block                1       1         490.247483         162.079860         -41.415923         162.079860          70.355644          -4.030546         -41.415923          -4.030546         280.079137
hessian_block                1       2        -481.440211        -165.719190          39.920000        -164.309163         -60.769478           9.410724         -24.386030          -4.081030          13.132803
hessian_block                1       3           1.817427          -1.220750          -1.487178           2.748507           2.548712           0.941510          40.630161          12.596937          16.140873
hessian_block                1       4          -5.783435           2.850344           2.313726          -1.841962          -6.895092          -3.609522          29.319906           8.520277        -120.893337
hessian_block                1       5          -5.862445           2.258929           0.607223          -1.781322          -6.399133          -2.188881           3.028886          -2.474896        -133.061645
hessian_block                1       6           1.880413          -0.678809           0.062153           2.674464           2.018578          -0.523287          -7.177000         -10.530743         -40.949841
hessian_block                2       2         488.546306         160.024253          23.345429         160.024253          68.139226           8.196259          23.345429           8.196259         261.809086
hessian_block                2       3          -5.190263           2.562878          -0.835898          -1.088937          -5.915989          -1.068326         -39.995842         -11.717275        -109.510103
hessian_block                2       4           2.056768          -0.653335           1.395480           3.711364           2.655088          -1.010551         -28.685418         -12.920341          -7.569317
hessian_block                2       5           2.440105          -0.496355           0.162688           3.375432           2.535524           0.064368          -1.649890           2.273495           6.625494
hessian_block                2       6          -5.553473           2.442105           0.318330          -0.732539          -5.785139          -2.100721           7.065721           4.757138        -150.039973
hessian_block                3       3           3.320512          -1.988354           0.767008          -1.988354           3.388694           0.169569           0.767008           0.169569         134.075480
hessian_block                3       4          -0.509048           0.600562          -1.059175           0.745688          -0.568356          -0.570876          -0.483594           1.382040          -5.559559
hessian_block                3       5          -0.329627           0.447403          -1.679303           0.597613          -0.441952          -0.070314          -0.002382          -0.571319          -5.549633
hessian_block                3       6           1.750232          -1.148797           1.337151          -1.126691           1.848124          -0.408042           2.042044          -0.853475         -15.149068
hessian_block                4       4           3.515019          -2.258788           0.132458          -2.258788           3.812489           0.812353           0.132458           0.812353         172.752142
hessian_block                4       5           1.768971          -1.190613           1.290976          -1.263235           2.095693          -0.185442          -0.724316           0.656167         -30.533065
hessian_block                4       6          -0.189041           0.404694          -1.574327           0.294835          -0.240589           2.391113          -2.058172           3.722429           6.251127
hessian_block                5       5           3.147368          -1.870224          -0.301608          -1.870224           3.424740           0.333354          -0.301608           0.333354         153.996748
hessian_block                5       6          -0.305139           0.512121          -0.350691           0.421244          -0.355639          -0.216801          -0.079976           2.046914          22.970092
hessian_block                6       6           3.276241          -1.960930           0.207384          -1.960930           3.373898           0.857737           0.207384           0.857737         191.365655
hessian_block_lv             1       1          59.228509           4.808562           0.000000           4.808562           1.616761           0.000000           0.000000           0.000000           0.000000
hessian_block_lv_atom        1       1          -5.867107           3.845005           0.000000           1.428153           1.423246           0.000000           6.506846           2.230345           0.000000
hessian_block_lv_atom        1       2           5.905406          -3.801916           0.000000          -0.870314          -1.348361           0.000000           6.226126           0.682791           0.000000
hessian_block_lv_atom        1       3          -1.269424          -0.093021           0.000000           1.268607           0.153114           0.000000          15.586524           6.816397           0.000000
hessian_block_lv_atom        1       4           1.252012           0.076453           0.000000          -1.533492          -0.186243           0.000000          30.013515           8.439713           0.000000
hessian_block_lv_atom        1       5           0.893204          -0.071880           0.000000          -1.230409          -0.061556           0.000000         -26.856734          -8.791386           0.000000
hessian_block_lv_atom        1       6          -0.914091           0.045360           0.000000           0.937456           0.019801           0.000000         -31.476277          -9.377860           0.000000
