# 
# This is the geometry file that corresponds to the current relaxation step.
# If you do not want this file to be written, set the "write_restart_geometry" flag to .false.
#  aims_uuid : E0F8BCF5-9387-4AD5-A032-E5127CBAB7E2                                
# 
lattice_vector      5.69529741      0.00000000      0.00000000
lattice_vector      0.00000000      5.89260449      0.00000000
lattice_vector      0.00000000      0.00000000    101.32653777
atom_frac       0.71682584     -0.00269852      0.49985635 Se
atom_frac       0.60860200      0.61639955      0.49231378 Pd
atom_frac       0.00043164      0.49724901      0.49985547 Se
atom_frac       0.10856237      0.11644578      0.49231336 Pd
atom_frac       0.21688096      0.73551707      0.48478182 Se
atom_frac       0.50037523      0.23556950      0.48478266 Se
# 
# What follows is the current estimated Hessian matrix constructed by the BFGS algorithm.
# This is NOT the true Hessian matrix of the system.
# If you do not want this information here, switch it off using the "hessian_to_restart_geometry" keyword.
# 
trust_radius             0.1120728140
hessian_block                1       1           0.848388           0.003524           3.341480           0.003524           1.209764          -2.848826           3.341480          -2.848826         268.335271
hessian_block                1       2           0.004663          -0.151865          -0.734770          -0.167223          -0.605075          -4.368361           0.067981          -3.462615         -52.409244
hessian_block                1       3          -0.062423           0.030299          -1.893095           0.035190           0.249202          -2.056626           1.683386          -0.937808          75.827671
hessian_block                1       4          -0.346559          -0.064502           2.963752          -0.163437          -0.021732           0.446298           1.796997          -0.911564         -51.942327
hessian_block                1       5           0.045068           0.087959           1.917976           0.088407          -0.203302           1.864724          -1.712478           2.094780         -43.670854
hessian_block                1       6          -0.200137           0.094584          -5.595343           0.203539          -0.324886           6.962792          -5.177365           6.066034        -105.073712
hessian_block                2       2           1.250764           0.020503           4.998688           0.020503           1.424313           3.704018           4.998688           3.704018         228.606464
hessian_block                2       3          -0.380024           0.166206          -1.857507           0.288113          -0.267988           2.288664          -1.041694          -1.665887         -35.636447
hessian_block                2       4          -0.213263          -0.013781          -1.466534          -0.281864           0.045368          -0.604694          -1.615843           1.637904          71.397365
hessian_block                2       5          -0.417929          -0.088927          -1.693684           0.281695           0.023411           1.919874          -0.963208           1.707805         -52.198750
hessian_block                2       6           0.044789           0.083221          -0.048944          -0.156583          -0.316058          -3.845248          -0.643173          -1.015479         -68.692582
hessian_block                3       3           0.868368          -0.047869          -3.968692          -0.047869           1.406654          -3.034681          -3.968692          -3.034681         259.421549
hessian_block                3       4           0.000881          -0.123522           0.456434           0.187288          -0.624558          -3.371172           1.411598          -2.678633         -46.007696
hessian_block                3       5          -0.174143          -0.138918           4.961774          -0.279740          -0.194326           6.381481           4.682517           5.170689        -116.476519
hessian_block                3       6           0.036341          -0.012995          -2.091208          -0.056185          -0.265013           2.628066           1.625180           0.310587         -46.061751
hessian_block                4       4           1.197023           0.237943          -4.809757           0.237943           1.400092           4.524796          -4.809757           4.524796         211.105357
hessian_block                4       5           0.020018           0.156904           0.822471          -0.046866          -0.547888          -2.155183           0.185565          -2.396153         -43.819910
hessian_block                4       6          -0.369101          -0.136835           2.394535           0.010728           0.052689          -0.417320           2.670541           1.400924         -49.665982
hessian_block                5       5           0.949768          -0.049229          -4.053145          -0.049229           1.159057          -4.689354          -4.053145          -4.689354         264.245301
hessian_block                5       6          -0.133781           0.005733           1.860749           0.032210           0.067019          -1.887767          -1.955392          -3.321543          82.987538
hessian_block                6       6           0.910889          -0.033709           3.480210          -0.033709           1.090220          -3.440523           3.480210          -3.440523         277.573296
hessian_block_lv             1       1          18.095139           9.249449          -0.471634           9.249449          10.369784          -0.057922          -0.471634          -0.057922           0.071604
hessian_block_lv_atom        1       1          -0.107157           0.178713          -0.005101          -0.520365           0.155932          -0.026183           9.154203           8.909177           0.714384
hessian_block_lv_atom        1       2          -0.188943          -0.209617          -0.018763           0.066212          -0.223853           0.005165          -4.632937          -5.872611          -0.547561
hessian_block_lv_atom        1       3           0.154001          -0.170637           0.007324          -0.829894          -0.204345          -0.060845           7.858543           7.218174           0.559792
hessian_block_lv_atom        1       4           0.102672           0.199114           0.015132           0.205652           0.122357           0.019955          -1.887912          -4.384883          -0.281572
hessian_block_lv_atom        1       5          -0.061628           0.208211          -0.003113           0.384673          -0.106020           0.013643          -5.865274          -3.752151          -0.296728
hessian_block_lv_atom        1       6           0.101054          -0.205785           0.004521           0.693721           0.255930           0.048265          -4.626622          -2.117705          -0.148316
