# 
# This is the geometry file that corresponds to the current relaxation step.
# If you do not want this file to be written, set the "write_restart_geometry" flag to .false.
#  aims_uuid : 4762D7C6-2B16-4B2C-ACDA-242C42591DED                                
# 
lattice_vector      3.77986508      0.00000000      0.00000000
lattice_vector     -1.88993254      3.27345918      0.00000000
lattice_vector      0.00000000      0.00000000      4.95614295
atom_frac      -0.00031971     -0.00032903     -0.00025774 Pt
atom_frac       0.33318762      0.66618563      0.25922230 Se
atom_frac       0.66632954      0.33334085      0.74023288 Se
# 
# What follows is the current estimated Hessian matrix constructed by the BFGS algorithm.
# This is NOT the true Hessian matrix of the system.
# If you do not want this information here, switch it off using the "hessian_to_restart_geometry" keyword.
# 
trust_radius             0.1000000015
hessian_block                1       1           9.078058          -0.156366           0.682894          -0.156366           7.158383          -0.434126           0.682894          -0.434126          24.251735
hessian_block                1       2          -3.488041          -0.338080          -0.493490          -0.045092          -2.416579           0.720232           0.234705           0.521008         -10.247544
hessian_block                1       3          -3.726933          -0.437096          -0.189403          -0.730084          -2.878720          -0.286106          -0.917599          -0.086882         -10.931180
hessian_block                2       2           5.335519          -1.320338           0.643709          -1.320338           5.634156          -1.305312           0.643709          -1.305312          15.303793
hessian_block                2       3           0.015606           0.433888          -0.878415           0.726877          -1.354494           0.784304          -0.150219           0.585080          -1.983238
hessian_block                3       3           5.574411          -0.928335           1.067818          -0.928335           6.096297          -0.498198           1.067818          -0.498198          15.987428
hessian_block_lv             1       1          34.988848           5.784081           0.000000           5.784081           2.015459           0.000000           0.000000           0.000000           0.000000
hessian_block_lv_atom        1       1           0.517545           0.274707           0.000000           0.281444           0.168350           0.000000           0.415308           0.121820           0.000000
hessian_block_lv_atom        1       2           1.517143           0.212354           0.000000           2.209764           0.205723           0.000000           3.009221           2.541729           0.000000
hessian_block_lv_atom        1       3          -2.034688          -0.487061           0.000000          -2.491208          -0.374073           0.000000          -3.424529          -2.663549           0.000000
