# 
# This is the geometry file that corresponds to the current relaxation step.
# If you do not want this file to be written, set the "write_restart_geometry" flag to .false.
#  aims_uuid : 752C2B75-8CC4-4F16-A31F-ACBAA805AEE8                                
# 
lattice_vector      5.69527370      0.00000000      0.00000000
lattice_vector      0.00000000      5.89257555      0.00000000
lattice_vector      0.00000000      0.00000000    101.32686094
atom_frac       0.71682684     -0.00269749      0.49985671 Se
atom_frac       0.60860206      0.61639938      0.49231436 Pd
atom_frac       0.00043120      0.49724976      0.49985586 Se
atom_frac       0.10856309      0.11644625      0.49231387 Pd
atom_frac       0.21687901      0.73551667      0.48478219 Se
atom_frac       0.50037768      0.23556971      0.48478301 Se
# 
# What follows is the current estimated Hessian matrix constructed by the BFGS algorithm.
# This is NOT the true Hessian matrix of the system.
# If you do not want this information here, switch it off using the "hessian_to_restart_geometry" keyword.
# 
trust_radius             0.1120684042
hessian_block                1       1           0.846975           0.002932           3.358222           0.002932           1.207857          -2.886914           3.358222          -2.886914         268.544830
hessian_block                1       2           0.004604          -0.154631          -0.771082          -0.165689          -0.603386          -4.354370           0.010915          -3.413695         -52.257466
hessian_block                1       3          -0.061149           0.033311          -1.886068           0.033406           0.249599          -2.049701           1.688301          -0.963140          76.099099
hessian_block                1       4          -0.345801          -0.066074           2.946893          -0.164334          -0.020576           0.501822           1.750687          -0.869457         -52.157821
hessian_block                1       5           0.044617           0.089540           1.944249           0.089109          -0.202153           1.868010          -1.678797           2.084946         -43.853747
hessian_block                1       6          -0.200246           0.094922          -5.592214           0.204576          -0.327371           6.921153          -5.129329           6.048260        -105.308088
hessian_block                2       2           1.245469           0.022872           5.029612           0.022872           1.422401           3.706429           5.029612           3.706429         227.978352
hessian_block                2       3          -0.377765           0.162361          -1.843470           0.283213          -0.268486           2.247243          -1.070712          -1.658862         -35.956721
hessian_block                2       4          -0.211574          -0.012521          -1.390680          -0.277732           0.046626          -0.729021          -1.563049           1.648631          71.370141
hessian_block                2       5          -0.418312          -0.090772          -1.715908           0.281687           0.020847           1.946913          -0.968982           1.691277         -52.065123
hessian_block                2       6           0.046578           0.083748          -0.090470          -0.155410          -0.314032          -3.757868          -0.655786          -1.033103         -68.002376
hessian_block                3       3           0.866532          -0.043773          -3.948945          -0.043773           1.403388          -3.029911          -3.948945          -3.029911         259.769337
hessian_block                3       4          -0.000491          -0.121130           0.438372           0.184672          -0.627073          -3.348622           1.410921          -2.697747         -46.551128
hessian_block                3       5          -0.173521          -0.137613           4.983463          -0.279816          -0.191448           6.397378           4.669574           5.189493        -116.333076
hessian_block                3       6           0.035395          -0.014103          -2.090480          -0.056755          -0.262011           2.603157           1.597988           0.340623         -45.960705
hessian_block                4       4           1.195335           0.239785          -4.759565           0.239785           1.400679           4.423134          -4.759565           4.423134         211.575609
hessian_block                4       5           0.020625           0.153966           0.792888          -0.047620          -0.550887          -2.146808           0.140576          -2.336539         -43.843182
hessian_block                4       6          -0.369094          -0.136356           2.368119           0.007560           0.055201          -0.357753           2.624404           1.489226         -49.326813
hessian_block                5       5           0.951347          -0.047762          -4.055873          -0.047762           1.161083          -4.711131          -4.055873          -4.711131         264.408530
hessian_block                5       6          -0.135757           0.004401           1.893503           0.032641           0.066528          -1.918044          -1.948819          -3.354362          82.753404
hessian_block                6       6           0.912124          -0.032612           3.511542          -0.032612           1.085655          -3.490644           3.511542          -3.490644         276.911384
hessian_block_lv             1       1          18.126006           9.321997          -0.466485           9.321997          10.453080          -0.053924          -0.466485          -0.053924           0.071991
hessian_block_lv_atom        1       1          -0.103948           0.180319          -0.004730          -0.523964           0.146555          -0.026723           9.082950           8.856729           0.707671
hessian_block_lv_atom        1       2          -0.186460          -0.210087          -0.018510           0.068954          -0.216661           0.005523          -4.572069          -5.808373          -0.539086
hessian_block_lv_atom        1       3           0.150118          -0.171127           0.006958          -0.832103          -0.207929          -0.060923           7.784793           7.129038           0.553000
hessian_block_lv_atom        1       4           0.099975           0.195687           0.014666           0.213328           0.132610           0.020826          -1.844217          -4.361693          -0.276509
hessian_block_lv_atom        1       5          -0.066154           0.207428          -0.003426           0.381448          -0.106355           0.013388          -5.841811          -3.740944          -0.296288
hessian_block_lv_atom        1       6           0.106469          -0.202219           0.005042           0.692338           0.251779           0.047909          -4.609647          -2.074756          -0.148787
