# 
# This is the geometry file that corresponds to the current relaxation step.
# If you do not want this file to be written, set the "write_restart_geometry" flag to .false.
#  aims_uuid : 1FDAF6C6-345B-43F3-ACD5-26B03F03287E                                
# 
lattice_vector      5.83778932      0.00000000      0.00000000
lattice_vector      0.00000000      5.95031556      0.00000000
lattice_vector      0.00000000      0.00000000      7.51814442
atom_frac       0.50114939      0.00041811      0.00029850 Pd
atom_frac       0.00041671      0.00048346      0.50137667 Pd
atom_frac       0.00052342      0.50114425      0.00032280 Pd
atom_frac       0.50125703      0.50120845      0.50135370 Pd
atom_frac       0.61288488      0.11862922      0.40369627 Se
atom_frac       0.89028786      0.88373968      0.90433397 Se
atom_frac       0.11216010      0.38305441      0.59876707 Se
atom_frac       0.38943202      0.61939111      0.09792569 Se
atom_frac       0.38949293      0.88375450      0.59877297 Se
atom_frac       0.11215309      0.11871507      0.09795621 Se
atom_frac       0.89022248      0.61930340      0.40370770 Se
atom_frac       0.61289503      0.38303327      0.90436341 Se
# 
# What follows is the current estimated Hessian matrix constructed by the BFGS algorithm.
# This is NOT the true Hessian matrix of the system.
# If you do not want this information here, switch it off using the "hessian_to_restart_geometry" keyword.
# 
trust_radius             0.0122099134
hessian_block                1       1           6.311601          -0.906627          -2.537869          -0.906627           8.778792          -0.267139          -2.537869          -0.267139           5.098074
hessian_block                1       2          -0.957580           2.829301           0.872647          -0.401567           2.321929           0.639987          -0.476687           1.322233           0.446270
hessian_block                1       3          -1.339384           3.947286           1.243990           0.010359          -0.418390          -0.023978          -0.955636           2.208266           0.775764
hessian_block                1       4           0.521136           0.246872          -0.054460           0.426617          -1.029788          -0.329968           0.068508           0.058639           0.013103
hessian_block                1       5           0.512726          -2.009159          -0.749261          -1.550808           3.194928           1.298895          -0.160735          -0.169652           0.086712
hessian_block                1       6          -0.202550          -3.933714          -0.729877           1.840801          -4.141187          -1.536482           3.779540          -6.937164          -2.832237
hessian_block                1       7          -1.080996           2.081291           0.824227           0.466916          -0.662102          -0.187678           0.054365           0.053467          -0.040751
hessian_block                1       8           0.350036          -2.099970          -0.230885          -0.072820          -2.714691           0.452081          -0.780164           2.896249           0.256367
hessian_block                1       9          -0.092168          -0.051733           0.161237           0.590230          -2.897222          -0.998528          -0.159193           0.154774           0.084357
hessian_block                1      10          -3.951173           5.136032           2.517363          -1.288024           3.403969           0.998960          -0.919984           4.177239           1.046566
hessian_block                1      11           1.097895          -3.094066          -1.058042           0.459588          -0.887846          -0.412901           0.179955          -0.122526           0.086985
hessian_block                1      12           0.396367          -2.145514          -0.259071           0.425338          -3.301368           0.366750           1.907898          -3.374382          -1.919344
hessian_block                2       2           8.322633           2.223698           3.502240           2.223698           8.519366           2.658906           3.502240           2.658906           5.558914
hessian_block                2       3           4.089690           3.370124           2.030656          -0.635095          -0.515674          -0.299985           2.155265           1.703805           1.105236
hessian_block                2       4           0.186533           0.539092           0.093593          -1.156508          -0.185794          -0.195815           0.093086           0.401944           0.162040
hessian_block                2       5          -3.525800          -0.993385          -1.607305           3.393614           2.039083           1.660429          -0.952884          -0.344599          -0.740176
hessian_block                2       6          -4.344864          -3.553658          -2.112459          -3.827540          -3.817250          -2.236465          -6.571399          -5.636433          -3.575947
hessian_block                2       7           1.766222           0.883699           0.690122          -1.336225          -2.514329          -1.365544          -0.245173          -1.001553          -0.476590
hessian_block                2       8          -1.656277          -1.613119          -0.933214          -0.632379          -0.858145          -0.490524           2.026739           1.727512           1.202705
hessian_block                2       9          -2.100222           0.267530          -1.025256          -1.865945          -2.996659          -1.164533          -0.835633           0.328834          -0.326629
hessian_block                2      10           4.625220           3.402666           2.259174           3.707841           3.536851           2.320155           4.469727           4.117687           2.575505
hessian_block                2      11          -3.081841          -2.911907          -1.653539          -1.230068          -3.205549          -1.594084          -0.460976          -1.192645          -0.752706
hessian_block                2      12          -1.757802          -1.213171          -0.767324          -1.470698          -0.676807          -0.614775          -4.053637          -3.403443          -2.076754
hessian_block                3       3          11.038422          -0.755021           5.165625          -0.755021           6.228748          -1.422545           5.165625          -1.422545           6.551307
hessian_block                3       4           0.260251          -0.222437          -0.070034          -1.360464           0.290736          -0.694402           0.196951          -0.110521           0.068595
hessian_block                3       5          -2.531169           0.186701          -1.518524           4.070378           0.027452           2.774738          -0.243606           0.104125          -0.030380
hessian_block                3       6          -6.268514           0.966837          -3.856852          -5.043319          -1.437556          -2.338126          -9.656519           1.449687          -6.162435
hessian_block                3       7           2.682603          -0.095805           1.766917          -1.159407           0.084583          -0.672673          -0.127002          -0.000060          -0.063309
hessian_block                3       8          -4.089449          -0.152853          -2.045700          -1.632096          -0.321798          -1.099225           2.053167          -0.465532           1.331251
hessian_block                3       9          -0.410114           0.372216           0.063032          -3.592771           0.132635          -2.208816          -0.010215           0.201198           0.205534
hessian_block                3      10           6.343696           0.086129           3.734534           5.931415          -2.344021           4.102919           6.183074           0.312523           3.302398
hessian_block                3      11          -4.088007           0.397053          -2.389740          -1.291318          -0.012664          -0.880891          -0.299978           0.100130          -0.121583
hessian_block                3      12          -4.122110          -0.158084          -2.048888          -2.484813          -0.067024          -1.473051          -6.536140           0.154957          -3.860512
hessian_block                4       4           5.897637           0.099987          -1.982941           0.099987           6.903425           1.437327          -1.982941           1.437327           4.868338
hessian_block                4       5          -0.416357           1.185907           0.238441           0.187240          -2.849238          -0.962413           0.000585          -1.165750          -0.633924
hessian_block                4       6          -0.080282           1.360189          -0.052904          -0.220115           0.646689          -0.340505           0.343747           1.618648          -0.261549
hessian_block                4       7          -1.941942          -1.306616           0.765101          -0.276994          -0.065582           0.214631           0.830787           0.081388          -0.470391
hessian_block                4       8          -0.187804           0.363827          -0.171008           0.097098          -0.164967          -0.082980          -0.177905          -0.499374           0.119687
hessian_block                4       9          -0.278798           0.641941           0.122169           0.057324          -1.641369          -1.098329           0.093896          -0.763077          -0.447836
hessian_block                4      10          -0.421875          -1.571576          -0.025344          -0.282374          -0.501098           0.358622          -0.002263          -0.883907           0.350396
hessian_block                4      11          -1.879407           0.541165           0.770378          -0.607976          -0.537718          -0.006028           0.891386           0.157141          -0.542287
hessian_block                4      12          -0.093181           0.775529          -0.022436           0.382281           0.781730           0.129611           0.033610           1.237788          -0.124309
hessian_block                5       5           6.151219          -2.406160          -0.999006          -2.406160           9.693127          -1.498610          -0.999006          -1.498610           7.638553
hessian_block                5       6           2.820554          -5.041681           0.275695           2.414537          -4.763237           0.955814           4.067227          -8.618783           1.309320
hessian_block                5       7          -1.568043           3.243243          -0.319677          -0.222604          -0.819268           0.460636           0.253360           0.522105          -1.069035
hessian_block                5       8           0.934642          -1.803731           0.577428           0.861324          -1.136028          -0.382395          -0.992884           3.092684          -1.177421
hessian_block                5       9          -1.272836          -0.442548           1.713055           1.247638          -4.843269           2.609382           1.486310           2.622898          -3.487238
hessian_block                5      10          -2.790936           5.705140          -0.149788          -2.000649           4.810790          -0.886326          -2.440528           5.430673          -1.298083
hessian_block                5      11           2.198675          -3.972637           0.558862           1.158559          -1.516505          -0.052489          -0.383786          -0.701165           1.195846
hessian_block                5      12           1.053238          -1.382049          -0.299928           0.577288          -2.190812           0.369862           2.645954          -5.621449           1.307689
hessian_block                6       6          11.821497           6.355441          12.386433           6.355441          11.316885          11.625988          12.386433          11.625988          25.795360
hessian_block                6       7          -2.932429          -2.935290          -5.123781           1.732215           1.540823           3.076243          -0.008546          -0.206672          -0.623296
hessian_block                6       8           2.342231           2.563346           3.954660           1.510004           1.382952           2.466718          -3.498217          -3.549289          -6.619441
hessian_block                6       9           0.162340           0.253612           0.188510           4.306521           4.621765           7.155012          -0.392243          -0.718826          -1.602486
hessian_block                6      10          -8.712356          -7.693611         -14.069917          -7.119732          -7.458517         -12.529188          -9.234729          -9.010260         -15.649527
hessian_block                6      11           4.363618           4.302650           7.082303           1.133289           1.730561           2.330610           0.323309           0.869391           1.551689
hessian_block                6      12           2.596665           1.989489           3.619196           2.284291           2.025099           3.998666           6.900384           6.485431          11.772408
hessian_block                7       7           6.690021          -0.096362           1.173443          -0.096362           6.177269          -1.294201           1.173443          -1.294201           7.571672
hessian_block                7       8          -1.286375           0.517193          -0.220493          -0.594564           0.033735           0.662191           1.920898          -1.261616           1.024562
hessian_block                7       9           0.310533           0.575098          -0.188426          -2.446060           0.421236          -0.485160           0.616252          -0.437222           1.166908
hessian_block                7      10           3.463363          -2.036059           0.013494           3.026930          -1.853306           0.068942           3.078733          -2.438868           0.621035
hessian_block                7      11          -3.692725           1.350711          -1.829610          -0.244479          -1.557732           2.190384          -1.859257           2.279651          -3.463259
hessian_block                7      12          -0.844322           0.485519           0.293799          -1.515988           0.861695          -0.590829          -3.532976           1.626641          -1.075683
hessian_block                8       8           5.504470           0.447926          -2.306883           0.447926           5.810155           0.604151          -2.306883           0.604151           9.132005
hessian_block                8       9           0.289677          -0.450007          -0.241850           1.810637           1.062231          -2.557644          -0.288863           0.254797           1.320529
hessian_block                8      10          -2.504499          -1.615333           3.988980          -2.570134          -1.481855           3.764548          -2.852334          -1.447584           4.619995
hessian_block                8      11           1.903584           0.713207          -2.535209           0.717602           1.055199          -0.477548           0.569627          -0.479038          -1.318923
hessian_block                8      12          -0.034325           1.367638           0.543326           1.819276          -1.019762          -3.274142           3.947660          -0.458194          -6.789450
hessian_block                9       9           5.011603          -0.454607          -0.751573          -0.454607           8.978043          -1.885012          -0.751573          -1.885012           7.633012
hessian_block                9      10          -0.150665          -4.163759           0.511037          -0.350051          -4.064295           0.738603          -0.521788          -4.877803           1.220296
hessian_block                9      11          -0.103922           3.453985          -0.607352          -0.575640           1.689629           0.146998           0.419510           0.671387          -1.135478
hessian_block                9      12           0.200485           1.056806           0.337575           0.214190           1.184301          -0.643963           0.061383           4.840041          -1.529106
hessian_block               10      10          13.129284           6.921122           9.208652           6.921122          11.849437           8.533456           9.208652           8.533456          15.676579
hessian_block               10      11          -4.718383          -4.091416          -4.568997          -1.275583          -1.906645          -1.303908          -0.535476          -1.114231          -1.363088
hessian_block               10      12          -2.745764          -1.884931          -2.399561          -2.895168          -2.344288          -2.609249          -7.452706          -6.356457          -8.000207
hessian_block               11      11           8.126590           1.496324           1.392129           1.496324           6.781824          -1.206422           1.392129          -1.206422           7.589361
hessian_block               11      12           1.439834           0.259700          -0.236443           1.814932           0.014473           0.738326           4.838816           1.266276           1.375306
hessian_block               12      12           5.476828           0.849069           1.239752           0.849069           6.379787           3.602792           1.239752           3.602792          14.021824
hessian_block_lv             1       1          26.160362          -2.127281           6.407228          -2.127281          24.327880           3.237798           6.407228           3.237798           2.981455
hessian_block_lv_atom        1       1          -0.962096          -0.405829          -0.678121           2.469308           1.582512           1.816134           1.153975           0.691315           0.715196
hessian_block_lv_atom        1       2           2.439371           1.263089           1.718294           3.163442           1.738120           1.645215           1.705255           0.742848           0.918174
hessian_block_lv_atom        1       3           3.633939           1.928308           2.449181          -0.351493           0.137646          -0.134377           2.563565           1.410054           1.613466
hessian_block_lv_atom        1       4           0.113660           0.078292          -0.008913           0.283299           0.231389          -0.313050           0.315406           0.061470           0.027159
hessian_block_lv_atom        1       5          -1.720480          -0.905462          -0.840146           3.371007           2.435534           2.604371          -2.181897          -2.772116          -1.590627
hessian_block_lv_atom        1       6          -4.183370          -3.181193          -3.281462          -4.783832          -3.261947          -3.178485          -9.243363          -7.287097          -6.222752
hessian_block_lv_atom        1       7           1.632094           0.827544           1.610162          -1.348737          -1.376904          -1.086350           1.015333           2.251605           1.270462
hessian_block_lv_atom        1       8          -1.752709          -0.845786          -1.359638          -1.207271          -0.651062          -0.391448           4.014221           3.958000           2.928958
hessian_block_lv_atom        1       9           0.150742           0.214806          -0.255017          -3.801491          -2.739569          -2.421035           1.722935           2.748193           1.551554
hessian_block_lv_atom        1      10           4.406012           3.189957           3.491571           4.974739           3.021181           3.146570           6.872514           5.914065           4.647616
hessian_block_lv_atom        1      11          -2.607217          -1.467870          -2.219924          -1.647703          -0.260377          -0.402011          -1.890334          -2.549052          -1.575600
hessian_block_lv_atom        1      12          -1.149947          -0.695856          -0.625986          -1.121264          -0.856521          -1.285533          -6.047613          -5.169286          -4.283606
symmetry_n_params 39 3 36
symmetry_params a1 b2 c3 x0 x1 x2 x3 x4 x5 x6 x7 x8 x9 x10 x11 x12 x13 x14 x15 x16 x17 x18 x19 x20 x21 x22 x23 x24 x25 x26 x27 x28 x29 x30 x31 x32 x33 x34 x35
symmetry_lv a1 , 0 , 0 
symmetry_lv 0 , b2 , 0 
symmetry_lv 0 , 0 , c3
symmetry_frac x0 , x1 , x2
symmetry_frac x3 , x4 , x5
symmetry_frac x6 , x7 , x8
symmetry_frac x9 , x10 , x11
symmetry_frac x12 , x13 , x14
symmetry_frac x15 , x16 , x17
symmetry_frac x18 , x19 , x20
symmetry_frac x21 , x22 , x23
symmetry_frac x24 , x25 , x26
symmetry_frac x27 , x28 , x29
symmetry_frac x30 , x31 , x32
symmetry_frac x33 , x34 , x35
