# 
# This is the geometry file that corresponds to the current relaxation step.
# If you do not want this file to be written, set the "write_restart_geometry" flag to .false.
#  aims_uuid : 8B0ED553-3655-4074-A0F0-E8297616863E                                
# 
lattice_vector      5.85117568      0.00000000      0.00000000
lattice_vector      0.00000000      5.95735012      0.00000000
lattice_vector      0.00000000      0.00000000      7.44947751
atom_frac       0.50224436      0.00169606      0.00158556 Pd
atom_frac       0.00168697      0.00168997      0.50239022 Pd
atom_frac       0.00174805      0.50225877      0.00159429 Pd
atom_frac       0.50230635      0.50225437      0.50238229 Pd
atom_frac       0.61409833      0.11975907      0.40424519 Se
atom_frac       0.89100858      0.88479954      0.90471155 Se
atom_frac       0.11351536      0.38425676      0.60040771 Se
atom_frac       0.39043460      0.62031978      0.09973348 Se
atom_frac       0.39045823      0.88480990      0.60040806 Se
atom_frac       0.11352979      0.11974390      0.09972964 Se
atom_frac       0.89100471      0.62032257      0.40424911 Se
atom_frac       0.61410575      0.38423038      0.90470399 Se
# 
# What follows is the current estimated Hessian matrix constructed by the BFGS algorithm.
# This is NOT the true Hessian matrix of the system.
# If you do not want this information here, switch it off using the "hessian_to_restart_geometry" keyword.
# 
trust_radius             0.0122099134
hessian_block                1       1           6.162821          -0.322230          -2.317075          -0.322230           7.214174          -0.816547          -2.317075          -0.816547           4.855782
hessian_block                1       2          -0.458902           1.359600           0.327080          -0.210037           1.191704           0.163051          -0.369722           0.597547           0.184294
hessian_block                1       3          -0.710799           1.839745           0.469085           0.074932          -0.351638           0.034658          -0.551673           0.912271           0.277040
hessian_block                1       4           0.500855           0.244391          -0.055771           0.113630          -0.531692          -0.200578          -0.007150           0.072674           0.006790
hessian_block                1       5           0.263343          -1.073776          -0.392397          -0.767937           1.240652           0.638396          -0.163157           0.116641           0.198583
hessian_block                1       6          -1.186400          -1.319507           0.179766           1.127252          -1.780283          -0.701082           2.469496          -2.588369          -1.260050
hessian_block                1       7          -0.665160           0.954095           0.448131           0.196971          -0.032803           0.012673           0.254168          -0.217390          -0.090440
hessian_block                1       8           0.087324          -1.141168           0.100835          -0.116723          -2.280003           0.656099          -0.232330           1.406441          -0.296994
hessian_block                1       9          -0.134652           0.014870           0.172371           0.035285          -1.335678          -0.417459           0.046899          -0.270128          -0.039206
hessian_block                1      10          -3.014429           2.350116           1.557488          -0.748069           1.126429           0.169887          -0.137417           1.225223          -0.014764
hessian_block                1      11           0.496493          -1.500908          -0.504363           0.640924          -0.526687          -0.197467           0.130893           0.226309           0.201682
hessian_block                1      12           0.225418          -1.405227           0.014849          -0.023995          -2.287148           0.658370           0.877066          -0.664670          -0.920853
hessian_block                2       2           7.012471           1.393580           2.997713           1.393580           8.637907           2.805938           2.997713           2.805938           5.662056
hessian_block                2       3           2.290738           2.486089           1.510578          -0.670531          -0.843934          -0.539820           1.018230           1.063367           0.743032
hessian_block                2       4           0.231520           0.650565           0.175368          -0.565249           0.685755           0.404135           0.175368           0.717250           0.367613
hessian_block                2       5          -2.760474          -0.724456          -1.472334           1.487273           0.371353           0.566992          -0.748309          -0.423332          -0.817594
hessian_block                2       6          -1.879865          -1.591057          -0.860099          -1.759705          -2.709090          -1.547516          -2.730559          -3.472241          -2.277505
hessian_block                2       7           0.692030           0.068324           0.140360          -0.667770          -1.819325          -0.899461          -0.652152          -1.733771          -0.979693
hessian_block                2       8          -0.882410          -1.299922          -0.749182          -0.345415          -1.022440          -0.646710           0.599504           0.582228           0.507063
hessian_block                2       9          -2.024793           0.397829          -0.932839          -0.409474          -1.988312          -0.533669          -1.326088          -0.297735          -0.740444
hessian_block                2      10           2.087685           1.681441           1.161997           1.873486           3.049260           2.059399           1.948514           2.977655           1.919830
hessian_block                2      11          -1.586834          -1.777951          -0.909043          -1.251780          -4.289476          -2.381303          -0.153781          -1.094336          -0.697830
hessian_block                2      12          -1.155254          -1.074402          -0.692795          -0.444017           0.383622           0.114467          -1.455522          -1.288074          -0.768957
hessian_block                3       3           8.689943          -0.927496           3.656577          -0.927496           6.383376          -1.487390           3.656577          -1.487390           5.580974
hessian_block                3       4           0.372754          -0.274438          -0.018304          -0.343509           0.068534          -0.122066           0.406750          -0.230143           0.175272
hessian_block                3       5          -1.602999           0.313860          -0.895984           1.260404           0.222788           1.083158          -0.056561           0.196067           0.097759
hessian_block                3       6          -2.742653           0.814040          -1.698307          -2.278810          -1.307637          -0.601901          -4.553010           1.621787          -2.958537
hessian_block                3       7           1.127948          -0.047625           0.825389          -0.116409          -0.056933          -0.078637          -0.867119           0.245220          -0.446971
hessian_block                3       8          -3.124587          -0.033018          -1.420245          -1.393092          -0.147122          -0.890910           0.039729          -0.356336           0.089478
hessian_block                3       9          -0.262929           0.338923           0.138117          -1.541618           0.104092          -0.932127          -0.795099           0.367338          -0.230088
hessian_block                3      10           2.843166           0.101165           1.577146           3.691489          -2.706557           2.641834           2.949505           0.064923           1.253745
hessian_block                3      11          -1.926626           0.341888          -1.063283          -1.777021           0.528300          -1.030784           0.075347           0.132667           0.100609
hessian_block                3      12          -3.388040          -0.031701          -1.567665          -0.899776          -0.246243          -0.556814          -2.835781          -0.048972          -1.580448
hessian_block                4       4           5.943682           0.158873          -1.953511           0.158873           7.029607           1.603470          -1.953511           1.603470           4.965169
hessian_block                4       5          -0.505474           0.669522           0.107318           0.145087          -2.361495          -1.037054          -0.010692          -1.420870          -0.727584
hessian_block                4       6          -0.090229           0.559773          -0.037216          -0.280843          -0.440994          -0.545336           0.225511          -0.326213          -0.584542
hessian_block                4       7          -1.968088          -0.950724           0.773470          -0.205141          -0.147841           0.292699           0.734084          -0.115217          -0.646425
hessian_block                4       8          -0.280011          -0.144479          -0.278047           0.025990          -0.563635          -0.247156          -0.181156          -0.053243           0.107796
hessian_block                4       9          -0.264128           0.666677           0.153415           0.065593          -2.210406          -1.158994           0.033496          -0.789288          -0.554325
hessian_block                4      10          -0.372945          -0.516580           0.063314          -0.134497           0.864855           0.727733           0.104736           0.618820           0.674927
hessian_block                4      11          -1.869777           0.029493           0.751032          -0.822605          -1.378688          -0.439811           0.910623          -0.047004          -0.592833
hessian_block                4      12          -0.132246           0.322571          -0.154742           0.427023           0.633027           0.244665           0.035617           0.448055          -0.089994
hessian_block                5       5           5.829850          -1.117744          -1.050086          -1.117744           7.341749          -1.113469          -1.050086          -1.113469           7.752708
hessian_block                5       6           1.256538          -1.819731          -0.159374           1.276976          -1.683851           0.760831           1.947602          -3.021892           1.052180
hessian_block                5       7          -0.872986           1.834514          -0.113215          -0.754776          -0.144485           0.371200           0.671507           0.375986          -0.960202
hessian_block                5       8           0.596034          -0.501638           0.519138           0.830122          -0.461482          -0.321730          -0.088280           1.287262          -0.984779
hessian_block                5       9          -1.358094          -0.388877           1.683346           0.331673          -2.865827           2.381852           1.893020           2.228763          -3.421559
hessian_block                5      10          -1.300887           2.187621           0.161506          -1.185030           1.687147          -0.892807          -1.157361           1.579204          -1.256996
hessian_block                5      11           1.235569          -1.963483           0.239911           1.601783          -0.667417           0.222762          -0.539076          -0.279852           1.278874
hessian_block                5      12           0.785493          -0.355489          -0.302506          -0.168158          -1.032108           0.122852           0.976072          -2.307494           0.890472
hessian_block                6       6           7.542257           2.429322           5.275506           2.429322           8.162967           5.880498           5.275506           5.880498          15.500387
hessian_block                6       7          -1.012797          -1.213257          -1.924806           0.737383           0.495512           1.272178           0.348299           0.468805           0.436895
hessian_block                6       8           0.775148           1.362757           1.800172           0.760395           1.045495           1.784744          -1.091031          -1.365058          -2.698576
hessian_block                6       9           0.067621           0.098659          -0.057468           1.667523           2.361293           2.926757           0.216256           0.040402          -0.383058
hessian_block                6      10          -4.148039          -3.755172          -6.982521          -3.325779          -4.793290          -7.682428          -4.434456          -5.332447          -9.153863
hessian_block                6      11           1.654785           1.870971           2.535170           0.434575           2.004332           2.659177          -0.210918           0.503008           1.007913
hessian_block                6      12           1.329545           1.121851           1.994908           0.653062           0.292571           0.946003           2.471571           2.439799           4.420620
hessian_block                7       7           5.903994           0.350800           0.986723           0.350800           6.111724          -1.433588           0.986723          -1.433588           7.950353
hessian_block                7       8          -0.544793          -0.002891           0.172425          -0.278799          -0.280943           1.018959           0.839579          -0.752786           0.892681
hessian_block                7       9           0.365750           0.589977          -0.237103          -1.340415          -0.206237          -0.161636           0.302263          -0.461958           1.396342
hessian_block                7      10           1.416548          -0.906089          -0.531177           1.338113          -0.694285          -0.903261           0.903173          -1.186238          -0.221518
hessian_block                7      11          -2.559850           0.682774          -1.510367           0.047854          -2.155096           3.102733          -1.620102           2.217634          -3.444652
hessian_block                7      12          -0.316686           0.095174           0.630710          -0.762880           0.577733          -0.646837          -1.560964           0.646285          -0.784507
hessian_block                8       8           5.152235           0.405500          -1.428800           0.405500           5.941097           1.054902          -1.428800           1.054902           7.782040
hessian_block                8       9           0.213054          -0.513103          -0.198712           0.869722           0.676268          -1.038455           0.089837           0.539541           1.040392
hessian_block                8      10          -0.982878          -1.017438           1.463613          -1.684555          -1.469298           1.663108          -1.522298          -1.154235           2.024856
hessian_block                8      11           0.897643           0.275764          -0.974830           1.105962           1.673054          -0.025500           0.400225          -0.504013          -1.090118
hessian_block                8      12          -0.340849           1.366798           1.252711           1.063730          -1.463966          -2.402563           2.315936          -1.289494          -4.271975
hessian_block                9       9           5.024567          -0.527469          -0.777770          -0.527469           7.447857          -1.430157          -0.777770          -1.430157           7.758087
hessian_block                9      10          -0.012190          -1.406314          -0.218686          -0.152340          -1.945823          -0.168212          -0.322947          -2.074893           0.348807
hessian_block                9      11          -0.176333           1.876214          -0.124603          -0.728594           1.467995           0.773828           0.396658           0.372745          -1.116642
hessian_block                9      12           0.128040           0.379278           0.660473           0.203448           0.141804          -0.532392          -0.017064           2.066035          -0.956444
hessian_block               10      10           8.425162           3.346088           4.572766           3.346088          10.022196           5.669677           4.572766           5.669677          11.707744
hessian_block               10      11          -1.818390          -1.733144          -1.466602          -1.042532          -3.023407          -1.954867          -0.076974          -0.864985          -1.093595
hessian_block               10      12          -1.556891          -1.285767          -1.437612          -1.022303          -0.470204          -0.432820          -2.748472          -2.419945          -3.087312
hessian_block               11      11           6.529211           1.148008           1.005079           1.148008           8.738115          -1.157462           1.005079          -1.157462           7.667813
hessian_block               11      12           0.690020           0.643425          -0.317972           0.750373          -0.723998           0.495288           2.021900           0.428693           0.880642
hessian_block               12      12           5.297363           0.223491          -0.080361           0.223491           5.841932           1.989780          -0.080361           1.989780           9.370621
hessian_block_lv             1       1          24.012161          -3.154176           5.358164          -3.154176          24.059946           2.768865           5.358164           2.768865           2.333256
hessian_block_lv_atom        1       1           0.009058           0.063475          -0.269593          -0.116697          -0.006270           0.437687           0.044511           0.033457           0.250375
hessian_block_lv_atom        1       2          -0.204869          -0.267291           0.435409           0.733726           0.635750           0.841762           0.396728           0.179950           0.410454
hessian_block_lv_atom        1       3          -0.039942          -0.069035           0.733445           0.100778           0.260046          -0.104489           0.261084           0.155381           0.569456
hessian_block_lv_atom        1       4           0.052826           0.076311          -0.017636           0.869766           0.807203           0.266346           0.207147           0.096841           0.096635
hessian_block_lv_atom        1       5           0.014316          -0.018580          -0.110244           0.494747           0.620417           0.929932          -2.035407          -2.884040          -1.596950
hessian_block_lv_atom        1       6          -0.345905          -0.827199          -1.120403          -1.139733          -1.272781          -1.374545          -3.072318          -4.048708          -3.151445
hessian_block_lv_atom        1       7          -0.263411          -0.322807           0.609349          -0.871784          -1.057926          -0.670246           1.369098           2.335404           1.147469
hessian_block_lv_atom        1       8          -0.244636          -0.080099          -0.614506          -0.185325          -0.223886          -0.121509           1.916630           2.758005           1.831421
hessian_block_lv_atom        1       9           0.142824           0.240706          -0.183013          -1.047827          -1.139694          -1.110784           1.773348           2.736667           1.358802
hessian_block_lv_atom        1      10           0.440209           0.946372           1.348836           1.363914           1.289152           1.557361           2.920593           4.021495           2.744735
hessian_block_lv_atom        1      11           0.262746           0.299771          -0.731825          -0.175984           0.147693          -0.253390          -1.811104          -2.657689          -1.538772
hessian_block_lv_atom        1      12           0.176783          -0.041627          -0.079820          -0.025575          -0.059702          -0.398122          -1.970315          -2.726765          -2.122182
symmetry_n_params 39 3 36
symmetry_params a1 b2 c3 x0 x1 x2 x3 x4 x5 x6 x7 x8 x9 x10 x11 x12 x13 x14 x15 x16 x17 x18 x19 x20 x21 x22 x23 x24 x25 x26 x27 x28 x29 x30 x31 x32 x33 x34 x35
symmetry_lv a1 , 0 , 0 
symmetry_lv 0 , b2 , 0 
symmetry_lv 0 , 0 , c3
symmetry_frac x0 , x1 , x2
symmetry_frac x3 , x4 , x5
symmetry_frac x6 , x7 , x8
symmetry_frac x9 , x10 , x11
symmetry_frac x12 , x13 , x14
symmetry_frac x15 , x16 , x17
symmetry_frac x18 , x19 , x20
symmetry_frac x21 , x22 , x23
symmetry_frac x24 , x25 , x26
symmetry_frac x27 , x28 , x29
symmetry_frac x30 , x31 , x32
symmetry_frac x33 , x34 , x35
