# 
# This is the geometry file that corresponds to the current relaxation step.
# If you do not want this file to be written, set the "write_restart_geometry" flag to .false.
#  aims_uuid : 874452C5-4F36-4FAE-AF2F-C4937F1EC316                                
# 
lattice_vector      5.84297062      0.00000000      0.00000000
lattice_vector      0.00000000      5.95281939      0.00000000
lattice_vector      0.00000000      0.00000000      7.52149818
atom_frac       0.50209953      0.00220436      0.00201734 Pd
atom_frac       0.00211693      0.00216164      0.50233744 Pd
atom_frac       0.00228345      0.50215997      0.00199793 Pd
atom_frac       0.50221847      0.50217589      0.50234035 Pd
atom_frac       0.61429617      0.12059334      0.40558852 Se
atom_frac       0.88999342      0.88374379      0.90548587 Se
atom_frac       0.11431882      0.38380281      0.59888322 Se
atom_frac       0.39013974      0.62058390      0.09876234 Se
atom_frac       0.39007669      0.88381863      0.59889044 Se
atom_frac       0.11424996      0.12052336      0.09876736 Se
atom_frac       0.89004929      0.62058984      0.40559150 Se
atom_frac       0.61429860      0.38378353      0.90547878 Se
# 
# What follows is the current estimated Hessian matrix constructed by the BFGS algorithm.
# This is NOT the true Hessian matrix of the system.
# If you do not want this information here, switch it off using the "hessian_to_restart_geometry" keyword.
# 
trust_radius             0.0976793072
hessian_block                1       1           5.976229           0.062754          -2.116033           0.062754           6.574230          -1.294202          -2.116033          -1.294202           4.668053
hessian_block                1       2          -0.055221           0.586003          -0.128479           0.267069           0.164778          -0.339493          -0.138969           0.129124          -0.070133
hessian_block                1       3          -0.105622           0.686587          -0.223618          -0.041139          -0.013289           0.117470          -0.149459           0.048872          -0.140392
hessian_block                1       4           0.511245           0.167036          -0.044016           0.085300          -0.534551          -0.154061           0.018341           0.017804          -0.022428
hessian_block                1       5          -0.029877          -0.572363          -0.050978          -0.345546           0.376206           0.170230          -0.169367           0.085695           0.229829
hessian_block                1       6          -1.802863           0.040026           0.817816           0.502043          -0.500100          -0.002346           1.473390          -0.398331          -0.248323
hessian_block                1       7          -0.317014           0.200075           0.071491           0.115425           0.125776           0.116064           0.074842           0.172958           0.100849
hessian_block                1       8          -0.194664          -0.271365           0.299755          -0.315193          -1.959267           0.894974           0.017000           0.861075          -0.546024
hessian_block                1       9          -0.145619           0.173733           0.142074          -0.413405          -0.313353           0.042524          -0.072663          -0.023065           0.091449
hessian_block                1      10          -2.295197           0.702846           0.843942          -0.068137          -0.352729          -0.552876           0.556747          -0.234836          -0.754689
hessian_block                1      11           0.038804          -0.552717           0.002656           0.300978           0.184099           0.163022           0.136139           0.124792           0.236601
hessian_block                1      12          -0.014288          -1.222614           0.385389          -0.150145          -2.104772           0.838696           0.370029           0.510114          -0.442927
hessian_block                2       2           6.159357           0.339952           2.495273           0.339952           7.441677           2.219507           2.495273           2.219507           5.377612
hessian_block                2       3           1.013274           0.916636           0.766954          -0.380054          -0.571884          -0.387972           0.134720           0.040796           0.240608
hessian_block                2       4           0.185979           0.639510           0.158674          -0.531221           0.791389           0.446819           0.116979           0.657762           0.338511
hessian_block                2       5          -2.171386           0.091223          -1.092857           0.571476          -0.687114           0.057818          -0.753616          -0.396709          -0.820671
hessian_block                2       6          -0.505121          -0.064121          -0.104300          -0.399900          -1.151993          -0.799892          -0.521119          -0.941538          -1.026391
hessian_block                2       7          -0.078546          -0.775829          -0.269841          -0.491309          -1.632910          -0.814191          -0.248728          -1.303259          -0.763784
hessian_block                2       8          -0.150456          -0.689812          -0.399150           0.046606          -0.465658          -0.390825           0.053618          -0.069168           0.188394
hessian_block                2       9          -1.942185           0.356249          -0.929318           0.604266          -0.902282           0.005651          -1.063406          -0.006257          -0.595240
hessian_block                2      10           0.462078          -0.096140           0.269225           0.357740           1.376701           1.237589           0.434087           1.206033           1.061674
hessian_block                2      11          -0.588443          -0.644860          -0.362612          -0.508269          -3.415973          -1.954561          -0.204861          -1.077995          -0.714559
hessian_block                2      12          -0.763417          -0.339873          -0.393077          -0.195293           0.700293           0.250932          -0.314469           0.010320          -0.114156
hessian_block                3       3           6.785968          -0.487286           2.328778          -0.487286           6.373796          -1.258435           2.328778          -1.258435           4.721482
hessian_block                3       4           0.303578          -0.302905          -0.029264          -0.281462           0.013464          -0.051044           0.324485          -0.214496           0.119237
hessian_block                3       5          -0.698142           0.066413          -0.246718          -0.094738           0.491512           0.167292          -0.068702           0.163631           0.121455
hessian_block                3       6          -0.698237           0.484111          -0.383646          -0.276747          -1.707360           0.756621          -1.227495           1.085081          -0.840212
hessian_block                3       7          -0.005135           0.146366           0.078296           0.129986          -0.114936           0.102955          -0.279326           0.144419          -0.060604
hessian_block                3       8          -2.042586          -0.028543          -0.867776          -0.792172          -0.326785          -0.447165          -0.795998          -0.222234          -0.437855
hessian_block                3       9          -0.156970           0.417400           0.137363          -0.043029          -0.114981           0.019495          -0.410476           0.292897           0.029261
hessian_block                3      10           0.413767           0.446558           0.058390           1.456665          -2.325364           1.181947           0.680451           0.481805          -0.238526
hessian_block                3      11          -0.455993           0.057765          -0.071928          -0.663153           0.319561          -0.298187          -0.000926           0.078826           0.107893
hessian_block                3      12          -2.787987          -0.378687          -0.988758          -0.551292          -0.376708          -0.263147          -1.094127          -0.280994          -0.520481
hessian_block                4       4           5.962843           0.183944          -1.954075           0.183944           7.069756           1.615394          -1.954075           1.615394           4.963949
hessian_block                4       5          -0.448662           0.708218           0.163789           0.120453          -2.272848          -1.085556           0.003477          -1.406855          -0.728744
hessian_block                4       6          -0.088202           0.400832           0.036151          -0.245022          -0.585912          -0.478063           0.234864          -0.513159          -0.443333
hessian_block                4       7          -1.971277          -0.844191           0.740786          -0.199135          -0.184585           0.293918           0.736922          -0.177604          -0.630002
hessian_block                4       8          -0.368792          -0.341768          -0.256003           0.071266          -0.530834          -0.208844          -0.184345          -0.028735           0.066253
hessian_block                4       9          -0.314626           0.573689           0.140380           0.053007          -2.356712          -1.113094           0.040328          -0.823068          -0.542138
hessian_block                4      10          -0.354331          -0.321383          -0.026590          -0.143439           1.056466           0.654642           0.076191           0.734671           0.580777
hessian_block                4      11          -1.848007          -0.083038           0.799296          -0.805219          -1.431054          -0.391378           0.941142          -0.003998          -0.592236
hessian_block                4      12          -0.003835           0.451079          -0.103537           0.460503           0.612448           0.251906           0.020102           0.361640          -0.007981
hessian_block                5       5           5.551859          -0.384751          -1.000818          -0.384751           6.433767          -1.083475          -1.000818          -1.083475           7.804161
hessian_block                5       6           0.140171          -0.476914          -0.228848           0.169582          -0.353710           0.727911           0.362995          -0.713071           1.029970
hessian_block                5       7          -0.193865           1.115738          -0.059207          -0.948735          -0.007554           0.355958           0.285009           0.725162          -1.006760
hessian_block                5       8          -0.151216           0.079657           0.406093           0.652530           0.032638          -0.282855           0.239097           0.666851          -1.002347
hessian_block                5       9          -1.570453          -0.424839           1.616605          -0.541912          -1.913204           2.317017           1.638109           2.456941          -3.464503
hessian_block                5      10           0.004480           0.593201           0.250596           0.073957           0.233027          -0.841360          -0.085409          -0.018033          -1.274055
hessian_block                5      11           0.399441          -1.001330           0.193302           1.082061           0.117543           0.234436          -0.421656          -0.266290           1.341554
hessian_block                5      12           0.733564           0.247592          -0.189514          -0.396226          -0.803239           0.126603           0.209437          -1.077868           0.871972
hessian_block                6       6           5.621551           0.455323           1.997134           0.455323           6.224812           2.459137           1.997134           2.459137          10.359296
hessian_block                6       7           0.030595          -0.170111          -0.029323           0.518714           0.308496           0.785771          -0.164290          -0.039851          -0.577647
hessian_block                6       8           0.086951           0.522032           0.469070          -0.004706           0.299217           0.694557          -0.218960          -0.438419          -1.462667
hessian_block                6       9           0.188285           0.170501          -0.066514           0.320037           0.973232           0.552811          -0.125928          -0.296539          -1.084363
hessian_block                6      10          -1.911833          -1.403416          -3.233989          -1.220983          -2.674002          -4.038538          -2.121494          -2.977196          -5.522710
hessian_block                6      11           0.233174           0.467485           0.020263          -0.706452           0.843009           0.871667          -0.281227           0.489011           1.015551
hessian_block                6      12           0.271441           0.208231           0.520725           0.254133          -0.028667           0.155612           0.777589           0.599628           1.902694
hessian_block                7       7           5.365210           0.436542           1.226632           0.436542           6.123214          -1.456757           1.226632          -1.456757           7.854356
hessian_block                7       8          -0.193381          -0.073312           0.019470           0.183196          -0.409766           0.755798           0.298147          -0.589092           1.199780
hessian_block                7       9           0.254949           0.642565          -0.147811          -0.624432          -0.341780          -0.499476           0.458684          -0.474144           1.342270
hessian_block                7      10           0.177054          -0.622720           0.089262           0.221402          -0.483616          -0.351623          -0.423829          -0.861092           0.490232
hessian_block                7      11          -1.816479           0.555265          -1.859044           0.699096          -2.315820           2.747228          -1.558502           2.197817          -3.496464
hessian_block                7      12           0.313801          -0.063283           0.267059          -0.587852           0.580501          -0.716993          -0.533333           0.342792          -1.350364
hessian_block                8       8           5.359987          -0.133760          -1.031558          -0.133760           5.830299           1.281266          -1.031558           1.281266           7.523497
hessian_block                8       9           0.548442          -0.671713          -0.133811           0.472161           0.075070          -0.382489          -0.030188           0.367555           1.258538
hessian_block                8      10          -0.256157          -0.114784           0.486852          -0.922213          -0.609835           0.680212          -0.487290          -0.425015           1.147832
hessian_block                8      11           0.322364          -0.288841          -0.278425           0.581357           1.319517           0.401042           0.201695          -0.413549          -1.123898
hessian_block                8      12          -1.394580           1.367570           1.548381           0.805565          -1.607572          -2.160310           1.675879          -1.825900          -3.709638
hessian_block                9       9           5.238115          -0.374342          -0.723093          -0.374342           6.524558          -1.659557          -0.723093          -1.659557           7.735304
hessian_block                9      10          -0.171885           0.162604           0.202381          -0.301499          -0.487127           0.206021          -0.269088          -0.392755           0.842076
hessian_block                9      11          -0.095867           0.882183          -0.350394          -0.762929           0.638331           0.529449           0.273414           0.288695          -1.158143
hessian_block                9      12          -0.266271          -0.497139           0.436643           0.201185          -0.134728          -0.570230          -0.040197           0.821177          -1.352648
hessian_block               10      10           5.858579           0.872772           1.896845           0.872772           7.750726           3.128858           1.896845           3.128858           9.182230
hessian_block               10      11          -0.122840          -0.203587           0.275596           0.278637          -1.763615          -0.714236           0.025174          -0.809385          -1.145471
hessian_block               10      12          -0.237805          -0.122683          -0.532805          -0.498172          -0.073609           0.071797          -0.862088          -0.495487          -1.267508
hessian_block               11      11           5.521445           0.290758           0.967561           0.290758           8.124223          -1.124603           0.967561          -1.124603           7.758399
hessian_block               11      12          -0.021689           0.213133          -0.077951           0.520916          -0.972795           0.516677           0.663731          -0.463882           0.872638
hessian_block               12      12           5.736980           0.136676          -0.872556           0.136676           5.855869           1.498456          -0.872556           1.498456           8.220263
hessian_block_lv             1       1          22.875007          -2.975920           4.397947          -2.975920          24.047931           2.959935           4.397947           2.959935           1.832261
hessian_block_lv_atom        1       1           0.502166          -0.030760           0.027160          -0.886526           0.151596          -0.202478          -0.594098           0.158246          -0.049663
hessian_block_lv_atom        1       2          -1.144342          -0.069524          -0.189559          -0.591114           0.876196           0.075735          -0.175176           0.288009           0.045851
hessian_block_lv_atom        1       3          -1.464387           0.210179          -0.241080           0.548332           0.172914           0.045820          -0.842307           0.371796          -0.049208
hessian_block_lv_atom        1       4          -0.053821           0.094906          -0.017760           0.827479           0.789062           0.284209           0.138316           0.104528           0.048736
hessian_block_lv_atom        1       5           0.577417          -0.162603           0.314366          -0.630101           0.819997           0.224917          -2.048420          -2.845244          -1.516075
hessian_block_lv_atom        1       6           1.424288          -1.152425          -0.140367           0.528986          -1.552532          -0.306039          -0.273335          -4.578214          -1.616162
hessian_block_lv_atom        1       7          -1.295373          -0.157769           0.000848          -0.639890          -1.080264          -0.494319           1.860516           2.235452           1.421318
hessian_block_lv_atom        1       8           0.952822          -0.278356          -0.200832           0.163904          -0.316721           0.168985           1.209862           2.889324           1.443999
hessian_block_lv_atom        1       9           0.414335           0.216959          -0.152433           0.331669          -1.367593          -0.357220           2.077828           2.662403           1.528174
hessian_block_lv_atom        1      10          -1.705802           1.348092           0.240236          -0.560137           1.615401           0.429707           1.040707           4.352254           1.612202
hessian_block_lv_atom        1      11           1.511122           0.084838           0.044034           0.699598          -0.021632           0.270310          -1.925713          -2.608191          -1.475692
hessian_block_lv_atom        1      12           0.281573          -0.103539           0.315384           0.207807          -0.086422          -0.139624          -0.468185          -3.030364          -1.393483
