#=======================================================
# FHI-aims file: geometry.in
# Created using the Atomic Simulation Environment (ASE)
# Thu Nov 19 19:47:51 2020
#=======================================================
lattice_vector 5.4100000000000001 0.0000000000000000 0.0000000000000000 
lattice_vector 0.0000000000000000 5.4100000000000001 0.0000000000000000 
lattice_vector 0.0000000000000000 0.0000000000000000 5.4100000000000001 
atom 0.0000000000000000 0.0000000000000000 0.0000000000000000 Fe
atom 0.0000000000000000 2.7050000000000001 2.7050000000000001 Fe
atom 2.7050000000000001 0.0000000000000000 2.7050000000000001 Fe
atom 2.7050000000000001 2.7050000000000001 0.0000000000000000 Fe
atom 2.0882600000000000 2.0882600000000000 2.0882600000000000 S
atom 3.3217400000000001 3.3217400000000001 3.3217400000000001 S
atom 4.7932600000000001 0.6167400000000000 3.3217400000000001 S
atom 0.6167400000000000 4.7932600000000001 2.0882600000000000 S
atom 3.3217400000000001 4.7932600000000001 0.6167400000000000 S
atom 2.0882600000000000 0.6167400000000000 4.7932600000000001 S
atom 0.6167400000000000 3.3217400000000001 4.7932600000000001 S
atom 4.7932600000000001 2.0882600000000000 0.6167400000000000 S
