# 
# This is the geometry file that corresponds to the current relaxation step.
# If you do not want this file to be written, set the "write_restart_geometry" flag to .false.
#  aims_uuid : 7819AF87-BF68-426E-AF6B-BDD88EBEC676                                
# 
lattice_vector      3.72013240      0.00000000      0.00000000
lattice_vector     -1.86006620      3.22172916      0.00000000
lattice_vector      0.00000000      0.00000000    101.44021153
atom_frac       0.00050557      0.66729064      0.50095630 Se
atom_frac       0.33383958      0.33370674      0.47487246 Se
atom_frac       0.66697169      0.00031946      0.48791157 Pt
# 
# What follows is the current estimated Hessian matrix constructed by the BFGS algorithm.
# This is NOT the true Hessian matrix of the system.
# If you do not want this information here, switch it off using the "hessian_to_restart_geometry" keyword.
# 
trust_radius             0.0896832575
hessian_block                1       1           1.047594          -0.587802          -1.020798          -0.587802           1.190084           7.130016          -1.020798           7.130016        1194.328092
hessian_block                1       2           0.067725           0.244882           7.795682           0.072773           0.160566           1.960294          -1.757550          -2.978640        -135.565760
hessian_block                1       3          -0.871312           0.220917          -6.774884           0.393026          -1.106644          -9.090310           2.778348          -4.151376        -879.609395
hessian_block                2       2           1.358842          -0.558579          -2.413528          -0.558579           0.906226          -0.057568          -2.413528          -0.057568         957.924751
hessian_block                2       3          -1.182560           0.363803           4.171078           0.191694          -0.822785           3.036208          -5.382155          -1.902727        -643.206053
hessian_block                3       3           2.297880          -0.706723           2.603806          -0.706723           2.173436           6.054103           2.603806           6.054103        1701.968385
hessian_block_lv             1       1          16.934885           0.212699           0.000000           0.212699           0.008132           0.000000           0.000000           0.000000           0.000000
hessian_block_lv_atom        1       1           0.086723           0.001194           0.000000           0.410817           0.031915           0.000000          72.091430           2.401797           0.000000
hessian_block_lv_atom        1       2           0.401922           0.034749           0.000000           0.184449           0.003656           0.000000         -60.464662          -1.682620           0.000000
hessian_block_lv_atom        1       3          -0.488644          -0.035943           0.000000          -0.595266          -0.035571           0.000000         -11.626768          -0.719177           0.000000
