# 
# This is the geometry file that corresponds to the current relaxation step.
# If you do not want this file to be written, set the "write_restart_geometry" flag to .false.
#  aims_uuid : E896F9AF-2966-44F1-ADB0-D8AB1E382831                                
# 
lattice_vector      5.69529428      0.00000000      0.00000000
lattice_vector      0.00000000      5.89258447      0.00000000
lattice_vector      0.00000000      0.00000000    101.32685089
atom_frac       0.71682742     -0.00269763      0.49985652 Se
atom_frac       0.60860201      0.61639924      0.49231422 Pd
atom_frac       0.00043033      0.49724970      0.49985566 Se
atom_frac       0.10856314      0.11644607      0.49231378 Pd
atom_frac       0.21687965      0.73551672      0.48478209 Se
atom_frac       0.50037672      0.23556956      0.48478290 Se
# 
# What follows is the current estimated Hessian matrix constructed by the BFGS algorithm.
# This is NOT the true Hessian matrix of the system.
# If you do not want this information here, switch it off using the "hessian_to_restart_geometry" keyword.
# 
trust_radius             0.1120691750
hessian_block                1       1           0.846571           0.002728           3.353880           0.002728           1.208445          -2.885967           3.353880          -2.885967         268.568546
hessian_block                1       2           0.004663          -0.153692          -0.770204          -0.165114          -0.604136          -4.355391           0.014187          -3.406214         -52.328349
hessian_block                1       3          -0.061124           0.032829          -1.883646           0.032637           0.250226          -2.055444           1.682334          -0.960909          76.098174
hessian_block                1       4          -0.345183          -0.065837           2.948306          -0.164222          -0.021807           0.497536           1.751819          -0.874042         -52.245714
hessian_block                1       5           0.044203           0.089470           1.941968           0.088944          -0.201821           1.868581          -1.678157           2.079942         -43.815529
hessian_block                1       6          -0.200129           0.094502          -5.590304           0.205027          -0.326936           6.930684          -5.124063           6.047190        -105.210322
hessian_block                2       2           1.246872           0.021618           5.043618           0.021618           1.423021           3.699421           5.043618           3.699421         228.310772
hessian_block                2       3          -0.378432           0.163006          -1.854011           0.284999          -0.268737           2.269322          -1.064836          -1.659755         -35.934436
hessian_block                2       4          -0.211963          -0.013396          -1.390477          -0.279463           0.048113          -0.741833          -1.568657           1.659854          71.438189
hessian_block                2       5          -0.418053          -0.090369          -1.713530           0.282186           0.020653           1.950459          -0.975854           1.694761         -52.220409
hessian_block                2       6           0.045914           0.084255          -0.099788          -0.155648          -0.314943          -3.771156          -0.664068          -1.038892         -68.198961
hessian_block                3       3           0.866687          -0.044773          -3.950041          -0.044773           1.403592          -3.034502          -3.950041          -3.034502         259.752647
hessian_block                3       4          -0.000079          -0.119779           0.444098           0.185620          -0.628765          -3.356845           1.410894          -2.701399         -46.631388
hessian_block                3       5          -0.173714          -0.138295           4.979340          -0.280098          -0.191203           6.398477           4.673853           5.180466        -116.334649
hessian_block                3       6           0.035663          -0.014789          -2.090895          -0.056585          -0.261143           2.613534           1.602952           0.341557         -45.883542
hessian_block                4       4           1.193832           0.239690          -4.753956           0.239690           1.402787           4.436184          -4.753956           4.436184         211.692598
hessian_block                4       5           0.021472           0.153842           0.791423          -0.047329          -0.551372          -2.152757           0.138324          -2.329003         -43.839364
hessian_block                4       6          -0.369078          -0.135467           2.368478           0.006652           0.055014          -0.367841           2.613705           1.493960         -49.347514
hessian_block                5       5           0.950861          -0.047864          -4.056141          -0.047864           1.161068          -4.711864          -4.056141          -4.711864         264.473008
hessian_block                5       6          -0.135768           0.004161           1.897975           0.033216           0.066647          -1.914303          -1.943060          -3.352896          82.803749
hessian_block                6       6           0.912400          -0.032661           3.514534          -0.032661           1.085331          -3.490919           3.514534          -3.490919         276.903396
hessian_block_lv             1       1          18.132939           9.310702          -0.467185           9.310702          10.434607          -0.054111          -0.467185          -0.054111           0.071942
hessian_block_lv_atom        1       1          -0.103253           0.179839          -0.004705          -0.524326           0.146322          -0.026730           9.086847           8.845419           0.707758
hessian_block_lv_atom        1       2          -0.187371          -0.210964          -0.018667           0.068902          -0.216229           0.005500          -4.589230          -5.807738          -0.541311
hessian_block_lv_atom        1       3           0.150802          -0.169435           0.007105          -0.832086          -0.208197          -0.060939           7.787324           7.118925           0.552819
hessian_block_lv_atom        1       4           0.098425           0.194198           0.014507           0.214255           0.133306           0.020980          -1.831201          -4.340077          -0.275185
hessian_block_lv_atom        1       5          -0.065538           0.207734          -0.003344           0.381459          -0.106689           0.013337          -5.838522          -3.740091          -0.295427
hessian_block_lv_atom        1       6           0.106935          -0.201371           0.005103           0.691796           0.251486           0.047853          -4.615217          -2.076438          -0.148654
