# 
# This is the geometry file that corresponds to the current relaxation step.
# If you do not want this file to be written, set the "write_restart_geometry" flag to .false.
#  aims_uuid : 010D9735-A329-49B2-AA22-927EC7BD5D17                                
# 
lattice_vector      5.69528033      0.00000000      0.00000000
lattice_vector      0.00000000      5.89259699      0.00000000
lattice_vector      0.00000000      0.00000000    101.32638133
atom_frac       0.71682504     -0.00269855      0.49985646 Se
atom_frac       0.60860178      0.61639921      0.49231391 Pd
atom_frac       0.00043266      0.49724928      0.49985560 Se
atom_frac       0.10856260      0.11644605      0.49231348 Pd
atom_frac       0.21688065      0.73551739      0.48478186 Se
atom_frac       0.50037568      0.23556940      0.48478267 Se
# 
# What follows is the current estimated Hessian matrix constructed by the BFGS algorithm.
# This is NOT the true Hessian matrix of the system.
# If you do not want this information here, switch it off using the "hessian_to_restart_geometry" keyword.
# 
trust_radius             0.1120723253
hessian_block                1       1           0.848858           0.004077           3.348794           0.004077           1.210017          -2.845863           3.348794          -2.845863         268.313478
hessian_block                1       2           0.005194          -0.151776          -0.731076          -0.167857          -0.605131          -4.378367           0.066244          -3.463428         -52.443050
hessian_block                1       3          -0.062935           0.029849          -1.895328           0.036090           0.249316          -2.049227           1.691510          -0.935027          75.877904
hessian_block                1       4          -0.347137          -0.064995           2.948883          -0.163808          -0.021155           0.444043           1.791303          -0.908959         -51.891354
hessian_block                1       5           0.045428           0.088211           1.921665           0.088311          -0.203911           1.866992          -1.715807           2.091731         -43.666312
hessian_block                1       6          -0.200408           0.094634          -5.592938           0.203187          -0.325165           6.962421          -5.182044           6.061547        -105.123859
hessian_block                2       2           1.251027           0.020351           5.013834           0.020351           1.423608           3.721037           5.013834           3.721037         228.821198
hessian_block                2       3          -0.380325           0.166948          -1.864116           0.288975          -0.267063           2.300128          -1.039949          -1.670422         -35.688255
hessian_block                2       4          -0.214002          -0.013523          -1.468475          -0.281720           0.044171          -0.612910          -1.616184           1.644767          71.432984
hessian_block                2       5          -0.417594          -0.088799          -1.696651           0.281415           0.024565           1.917131          -0.971522           1.704790         -52.285265
hessian_block                2       6           0.044701           0.082880          -0.050836          -0.157245          -0.316180          -3.861957          -0.655103          -1.021805         -68.770807
hessian_block                3       3           0.868713          -0.048854          -3.973674          -0.048854           1.407320          -3.032753          -3.973674          -3.032753         259.475790
hessian_block                3       4           0.001613          -0.124575           0.446713           0.187528          -0.623794          -3.366455           1.408384          -2.680916         -46.011664
hessian_block                3       5          -0.174647          -0.138762           4.964885          -0.279728          -0.195555           6.376963           4.689377           5.162538        -116.493216
hessian_block                3       6           0.036581          -0.012875          -2.089486          -0.055743          -0.266253           2.627694           1.635357           0.300230         -46.093752
hessian_block                4       4           1.197553           0.238161          -4.792915           0.238161           1.398846           4.522289          -4.792915           4.522289         211.091767
hessian_block                4       5           0.019764           0.157093           0.821608          -0.046424          -0.547021          -2.157675           0.190182          -2.391562         -43.895739
hessian_block                4       6          -0.368791          -0.137253           2.387804           0.011356           0.052923          -0.419506           2.675611           1.404596         -49.659187
hessian_block                5       5           0.949856          -0.049671          -4.054820          -0.049671           1.158567          -4.687768          -4.054820          -4.687768         264.334713
hessian_block                5       6          -0.133807           0.006096           1.862590           0.031927           0.067325          -1.879728          -1.956688          -3.315643          83.072625
hessian_block                6       6           0.910726          -0.033482           3.482867          -0.033482           1.091321          -3.428924           3.482867          -3.428924         277.641788
hessian_block_lv             1       1          18.082003           9.242255          -0.472281           9.242255          10.363598          -0.058992          -0.472281          -0.058992           0.071540
hessian_block_lv_atom        1       1          -0.107961           0.178854          -0.005168          -0.520862           0.155918          -0.026232           9.139492           8.894728           0.713221
hessian_block_lv_atom        1       2          -0.189874          -0.210779          -0.018897           0.065411          -0.225676           0.005054          -4.621521          -5.866235          -0.547384
hessian_block_lv_atom        1       3           0.155406          -0.169610           0.007463          -0.829858          -0.204114          -0.060901           7.853722           7.217682           0.559553
hessian_block_lv_atom        1       4           0.102885           0.198235           0.015174           0.205543           0.122780           0.019966          -1.871026          -4.355275          -0.280025
hessian_block_lv_atom        1       5          -0.061442           0.209319          -0.003084           0.385770          -0.105230           0.013757          -5.863316          -3.755129          -0.296373
hessian_block_lv_atom        1       6           0.100987          -0.206020           0.004512           0.693996           0.256322           0.048355          -4.637352          -2.135770          -0.148992
