# 
# This is the geometry file that corresponds to the current relaxation step.
# If you do not want this file to be written, set the "write_restart_geometry" flag to .false.
#  aims_uuid : 07F4E5E2-4264-4814-A0F7-3467A8FBD3E5                                
# 
lattice_vector      3.28814990      0.00000000      0.00000000
lattice_vector     -1.64407495      2.84762134      0.00000000
lattice_vector      0.00000000      0.00000000     13.22533681
atom_frac       0.32923244      0.66462489      0.25230578 W
atom_frac       0.67546139      0.34004543      0.75234490 W
atom_frac       0.34199846      0.67327784      0.87995277 Se
atom_frac       0.66264736      0.33134980      0.37991335 Se
atom_frac       0.66264327      0.33135693      0.12470134 Se
atom_frac       0.34197593      0.67330396      0.62474071 Se
# 
# What follows is the current estimated Hessian matrix constructed by the BFGS algorithm.
# This is NOT the true Hessian matrix of the system.
# If you do not want this information here, switch it off using the "hessian_to_restart_geometry" keyword.
# 
trust_radius             0.0028334285
hessian_block                1       1         464.859485         167.492444          10.247735         167.492444          77.729161           0.771302          10.247735           0.771302         222.457136
hessian_block                1       2        -457.789300        -174.803184         -14.528812        -172.795539         -67.321707           3.942534          45.267521          13.267082          25.713409
hessian_block                1       3          -3.852864          -2.585707           4.285871           9.290856           3.865381          -3.221841          47.019701          16.418624          -3.588895
hessian_block                1       4           0.628155           5.975695          -2.114523          -6.667822          -8.548152           0.823816          26.794783           3.172342         -82.092932
hessian_block                1       5           0.713964           6.088481          -2.151605          -6.824820          -8.706177           0.855461         -60.214280         -14.828003        -120.233765
hessian_block                1       6          -3.700208          -2.597345           4.261333           9.075264           3.840727          -3.171273         -69.115460         -18.801347         -27.806963
hessian_block                2       2         469.385830         165.852697         -49.477531         165.852697          77.326240          -9.658723         -49.477531          -9.658723         233.618910
hessian_block                2       3          -0.338261           5.624072           3.665646          -5.699902          -8.816173          -2.310915         -45.111233         -19.378681         -99.233062
hessian_block                2       4          -4.739696          -2.331061          -1.605029           9.599689           4.165274           0.525052         -26.879109          -3.949441          13.156695
hessian_block                2       5          -5.014707          -2.381338          -1.548263           9.951695           4.259551           0.471328          63.237510          13.146386         -24.132238
hessian_block                2       6          -0.644633           5.601553           3.697657          -5.330611          -8.753953          -2.293825          72.759174          15.897925        -134.675725
hessian_block                3       3           3.783736          -2.501930          -0.843714          -2.501930           3.916205           1.939941          -0.843714           1.939941         120.401386
hessian_block                3       4          -0.614126           0.155756           0.124587           0.468241          -0.316445          -0.664717           2.693546          -1.772001           5.326022
hessian_block                3       5          -0.570878           0.146241          -0.048757           0.431799          -0.314018          -0.509249          -4.899418           2.519948          -1.228655
hessian_block                3       6           2.451625          -1.820637          -1.140584          -1.866092           2.524282           2.194082          -4.901931           2.844867          -7.228807
hessian_block                4       4           3.779849          -2.512918          -2.380611          -2.512918           3.646848           1.871536          -2.380611           1.871536         131.705493
hessian_block                4       5           2.420149          -1.827054          -2.663066          -1.866449           2.264893           2.185137           3.158557          -1.450152         -33.096422
hessian_block                4       6          -0.615098           0.510249           2.434456           0.149362          -0.353186          -1.507573           2.817019          -1.105535         -20.550866
hessian_block                5       5           3.879604          -2.592897           3.394323          -2.592897           3.702682          -1.682463           3.394323          -1.682463         150.710744
hessian_block                5       6          -0.568900           0.471054          -4.676691           0.136951          -0.347699           2.294284           3.017368          -1.320215          42.428326
hessian_block                6       6           3.936446          -2.594491          -4.576170          -2.594491           3.949061           2.484305          -4.576170           2.484305         162.282025
hessian_block_lv             1       1          61.780622           6.365925           0.000000           6.365925           2.090457           0.000000           0.000000           0.000000           0.000000
hessian_block_lv_atom        1       1          11.716533           6.281563           0.000000           2.521712           0.647926           0.000000          17.017302           4.207012           0.000000
hessian_block_lv_atom        1       2         -13.645988          -6.781840           0.000000          -0.652580          -0.898288           0.000000          12.523032           4.259582           0.000000
hessian_block_lv_atom        1       3           2.199120           0.771294           0.000000          -1.200988          -0.344182           0.000000          13.319529           5.708299           0.000000
hessian_block_lv_atom        1       4          -1.066575          -0.533942           0.000000           0.077014           0.482530           0.000000          27.137231           9.685175           0.000000
hessian_block_lv_atom        1       5          -1.247617          -0.536128           0.000000           0.282369           0.485028           0.000000         -35.992312         -11.908969           0.000000
hessian_block_lv_atom        1       6           2.044525           0.799053           0.000000          -1.027527          -0.373014           0.000000         -34.004782         -11.951099           0.000000
