# 
# This is the geometry file that corresponds to the current relaxation step.
# If you do not want this file to be written, set the "write_restart_geometry" flag to .false.
#  aims_uuid : 2012FF77-A671-467D-A236-235D27EDF1F8                                
# 
lattice_vector      3.28805861      0.00000000      0.00000000
lattice_vector     -1.64402931      2.84754229      0.00000000
lattice_vector      0.00000000      0.00000000    102.62245666
atom_frac       0.00012682      0.00029589      0.50053229 Se
atom_frac       0.33354731      0.66711063      0.48407480 W
atom_frac       0.00019814      0.00033803      0.46761976 Se
# 
# What follows is the current estimated Hessian matrix constructed by the BFGS algorithm.
# This is NOT the true Hessian matrix of the system.
# If you do not want this information here, switch it off using the "hessian_to_restart_geometry" keyword.
# 
trust_radius             0.0107193368
hessian_block                1       1           1.130070          -0.551321          -9.093306          -0.551321           1.121073           7.125883          -9.093306           7.125883        4053.575816
hessian_block                1       2          -0.950697           0.551152          -4.623151           0.565159          -1.124796         -20.357335          10.239588          -7.657108       -4131.201119
hessian_block                1       3           0.041132          -0.110084          13.716457          -0.124091           0.224229          13.231452          -1.146282           0.531225         297.001206
hessian_block                2       2           2.412134          -1.243176           2.529394          -1.243176           2.546815          23.289866           2.529394          23.289866        6428.888991
hessian_block                2       3          -1.240931           0.567764         -12.768982           0.581770          -1.201513         -15.632758           2.093757          -2.932531       -2078.311968
hessian_block                3       3           1.420304          -0.567932          -0.947475          -0.567932           1.197790           2.401306          -0.947475           2.401306        2000.686666
hessian_block_lv             1       1          33.060949           0.093756           0.000000           0.093756           0.016214           0.000000           0.000000           0.000000           0.000000
hessian_block_lv_atom        1       1           0.285443          -0.014339           0.000000           0.383808           0.015082           0.000000         -14.259156           6.815866           0.000000
hessian_block_lv_atom        1       2           1.869698          -0.005913           0.000000          -0.744023          -0.040509           0.000000          83.485152          -4.365926           0.000000
hessian_block_lv_atom        1       3          -2.155141           0.020252           0.000000           0.360215           0.025427           0.000000         -69.225996          -2.449940           0.000000
