# 
# This is the geometry file that corresponds to the current relaxation step.
# If you do not want this file to be written, set the "write_restart_geometry" flag to .false.
#  aims_uuid : 1BE68F59-E19D-49F3-A6E4-7AD7F88D86C4                                
# 
lattice_vector      3.71995831      0.00000000      0.00000000
lattice_vector     -1.85997916      3.22157840      0.00000000
lattice_vector      0.00000000      0.00000000    101.67846843
atom_frac       0.00060881      0.66720023      0.50128915 Se
atom_frac       0.33410594      0.33415491      0.47527452 Se
atom_frac       0.66735976      0.00071937      0.48828425 Pt
# 
# What follows is the current estimated Hessian matrix constructed by the BFGS algorithm.
# This is NOT the true Hessian matrix of the system.
# If you do not want this information here, switch it off using the "hessian_to_restart_geometry" keyword.
# 
trust_radius             0.0466365732
hessian_block                1       1           1.166123          -0.714729          -5.354635          -0.714729           1.008327           1.126258          -5.354635           1.126258        1031.521496
hessian_block                1       2          -0.003414           0.098228           1.883580           0.094731           0.027415          -0.179259          -0.432218           0.879023          -9.312949
hessian_block                1       3          -0.918703           0.494497           3.471055           0.497995          -0.791735          -0.947000           5.786853          -2.005281        -843.055609
hessian_block                2       2           1.103124          -0.602304           0.837077          -0.602304           1.077438          -1.504072           0.837077          -1.504072         948.181852
hessian_block                2       3          -0.855703           0.385570          -0.404859           0.382073          -0.860846           0.625049          -2.720657           1.683331        -759.715965
hessian_block                3       3           2.018413          -1.002071          -3.066196          -1.002071           1.896588           0.321950          -3.066196           0.321950        1781.924512
hessian_block_lv             1       1          18.145910           0.095148           0.000000           0.095148           0.004825           0.000000           0.000000           0.000000           0.000000
hessian_block_lv_atom        1       1          -0.617232           0.009418           0.000000           0.355648          -0.010712           0.000000          70.072125           0.906867           0.000000
hessian_block_lv_atom        1       2           0.014009          -0.003270           0.000000           0.003296           0.007928           0.000000         -53.796122          -1.419635           0.000000
hessian_block_lv_atom        1       3           0.603223          -0.006148           0.000000          -0.358944           0.002784           0.000000         -16.276003           0.512768           0.000000
