# 
# This is the geometry file that corresponds to the current relaxation step.
# If you do not want this file to be written, set the "write_restart_geometry" flag to .false.
#  aims_uuid : 0CACF6F4-8D63-498E-A985-3D40C5545F7E                                
# 
lattice_vector      5.69528300      0.00000000      0.00000000
lattice_vector      0.00000000      5.89257885      0.00000000
lattice_vector      0.00000000      0.00000000    101.32677158
atom_frac       0.71682636     -0.00269776      0.49985663 Se
atom_frac       0.60860280      0.61639925      0.49231419 Pd
atom_frac       0.00043101      0.49725009      0.49985578 Se
atom_frac       0.10856319      0.11644601      0.49231390 Pd
atom_frac       0.21687961      0.73551705      0.48478215 Se
atom_frac       0.50037661      0.23556935      0.48478294 Se
# 
# What follows is the current estimated Hessian matrix constructed by the BFGS algorithm.
# This is NOT the true Hessian matrix of the system.
# If you do not want this information here, switch it off using the "hessian_to_restart_geometry" keyword.
# 
trust_radius             0.1120679804
hessian_block                1       1           0.847488           0.003378           3.355964           0.003378           1.208354          -2.881693           3.355964          -2.881693         268.611629
hessian_block                1       2           0.004979          -0.153929          -0.766194          -0.166322          -0.603816          -4.360170           0.022772          -3.420945         -52.404484
hessian_block                1       3          -0.061507           0.032624          -1.886560           0.034509           0.250052          -2.048694           1.690445          -0.958028          76.150538
hessian_block                1       4          -0.346447          -0.066275           2.945517          -0.164799          -0.021132           0.490352           1.763663          -0.864786         -52.206821
hessian_block                1       5           0.044946           0.089421           1.943587           0.089242          -0.202163           1.869823          -1.689678           2.080187         -43.833798
hessian_block                1       6          -0.200459           0.094781          -5.592314           0.203993          -0.327325           6.930382          -5.143165           6.045265        -105.250257
hessian_block                2       2           1.246665           0.022490           5.026280           0.022490           1.422292           3.718498           5.026280           3.718498         228.174998
hessian_block                2       3          -0.378556           0.163299          -1.846749           0.284254          -0.268000           2.245932          -1.065293          -1.661454         -36.031175
hessian_block                2       4          -0.211946          -0.012852          -1.398821          -0.278772           0.046470          -0.708017          -1.565776           1.637946          71.630464
hessian_block                2       5          -0.418398          -0.090301          -1.718814           0.281687           0.021388           1.941315          -0.971796           1.698175         -52.152975
hessian_block                2       6           0.046255           0.083687          -0.084668          -0.155730          -0.314363          -3.776782          -0.657221          -1.032995         -68.150022
hessian_block                3       3           0.866825          -0.045279          -3.954312          -0.045279           1.403478          -3.029937          -3.954312          -3.029937         259.803499
hessian_block                3       4           0.000455          -0.121124           0.438612           0.185712          -0.626905          -3.356092           1.406343          -2.676320         -46.496248
hessian_block                3       5          -0.173886          -0.138236           4.981301          -0.280111          -0.192109           6.396385           4.674603           5.176282        -116.392314
hessian_block                3       6           0.035669          -0.014124          -2.090752          -0.056245          -0.262544           2.609125           1.606676           0.332737         -45.967495
hessian_block                4       4           1.194976           0.239597          -4.769698           0.239597           1.401102           4.430834          -4.769698           4.430834         211.624798
hessian_block                4       5           0.020899           0.154552           0.801956          -0.047222          -0.550481          -2.147024           0.152280          -2.337885         -43.943493
hessian_block                4       6          -0.368937          -0.136291           2.363512           0.007877           0.054917          -0.380651           2.632109           1.480807         -49.541893
hessian_block                5       5           0.950983          -0.048120          -4.059006          -0.048120           1.160647          -4.710886          -4.059006          -4.710886         264.494639
hessian_block                5       6          -0.135544           0.004524           1.893599           0.032684           0.066689          -1.905873          -1.949023          -3.349613          82.894748
hessian_block                6       6           0.912017          -0.032579           3.510624          -0.032579           1.086597          -3.476201           3.510624          -3.476201         277.081726
hessian_block_lv             1       1          18.127196           9.310874          -0.467252           9.310874          10.435358          -0.054571          -0.467252          -0.054571           0.071923
hessian_block_lv_atom        1       1          -0.105404           0.178421          -0.004934          -0.524164           0.146654          -0.026731           9.087936           8.846305           0.707672
hessian_block_lv_atom        1       2          -0.186251          -0.209929          -0.018539           0.068187          -0.217586           0.005439          -4.594910          -5.823030          -0.541526
hessian_block_lv_atom        1       3           0.151281          -0.168900           0.007158          -0.831527          -0.206941          -0.060897           7.788428           7.123242           0.552813
hessian_block_lv_atom        1       4           0.099903           0.194305           0.014652           0.212353           0.131454           0.020756          -1.849191          -4.338421          -0.276921
hessian_block_lv_atom        1       5          -0.065432           0.208454          -0.003340           0.382390          -0.105577           0.013455          -5.827920          -3.731490          -0.294394
hessian_block_lv_atom        1       6           0.105903          -0.202351           0.005004           0.692760           0.251997           0.047978          -4.604344          -2.076606          -0.147644
