# 
# This is the geometry file that corresponds to the current relaxation step.
# If you do not want this file to be written, set the "write_restart_geometry" flag to .false.
#  aims_uuid : D59CF5FE-3766-4307-A032-FE7DEACA1BC1                                
# 
lattice_vector      5.69559129      0.00000000      0.00000000
lattice_vector      0.00000000      5.89279026      0.00000000
lattice_vector      0.00000000      0.00000000    101.32728789
atom_frac       0.71683283     -0.00270406      0.49985366 Se
atom_frac       0.60860039      0.61639676      0.49231242 Pd
atom_frac       0.00042287      0.49724426      0.49985278 Se
atom_frac       0.10856058      0.11644499      0.49231187 Pd
atom_frac       0.21689051      0.73552086      0.48478119 Se
atom_frac       0.50036389      0.23557248      0.48478200 Se
# 
# What follows is the current estimated Hessian matrix constructed by the BFGS algorithm.
# This is NOT the true Hessian matrix of the system.
# If you do not want this information here, switch it off using the "hessian_to_restart_geometry" keyword.
# 
trust_radius             0.1121037486
hessian_block                1       1           0.848015           0.003762           3.335780           0.003762           1.209112          -2.846859           3.335780          -2.846859         268.277239
hessian_block                1       2           0.004384          -0.151968          -0.751535          -0.166748          -0.604086          -4.380066           0.069564          -3.441279         -52.192739
hessian_block                1       3          -0.062213           0.029398          -1.877911           0.035368           0.249563          -2.043696           1.678704          -0.930923          75.813170
hessian_block                1       4          -0.345962          -0.063159           2.959064          -0.163662          -0.022900           0.460983           1.795285          -0.910305         -51.716004
hessian_block                1       5           0.045319           0.087919           1.935234           0.088229          -0.202263           1.861071          -1.709680           2.077244         -43.832871
hessian_block                1       6          -0.200542           0.094048          -5.600633           0.203051          -0.325456           6.948566          -5.169653           6.052122        -105.281987
hessian_block                2       2           1.250526           0.021651           5.011858           0.021651           1.421625           3.708460           5.011858           3.708460         228.311297
hessian_block                2       3          -0.379797           0.167178          -1.880369           0.288780          -0.266127           2.289127          -1.048051          -1.674617         -35.475899
hessian_block                2       4          -0.212986          -0.017743          -1.434128          -0.282573           0.045898          -0.638693          -1.610310           1.656385          70.914646
hessian_block                2       5          -0.417315          -0.088279          -1.700174           0.281852           0.022964           1.919512          -0.960887           1.716196         -52.127671
hessian_block                2       6           0.044188           0.083942          -0.066751          -0.157742          -0.316304          -3.837127          -0.641075          -1.026358         -68.362827
hessian_block                3       3           0.867595          -0.050004          -3.961065          -0.050004           1.407824          -3.010166          -3.961065          -3.010166         259.519941
hessian_block                3       4           0.001848          -0.120335           0.454459           0.187612          -0.628566          -3.378146           1.396324          -2.717117         -45.981872
hessian_block                3       5          -0.175590          -0.138797           4.978944          -0.279603          -0.192770           6.384916           4.688365           5.162899        -116.601807
hessian_block                3       6           0.037157          -0.015012          -2.102991          -0.054581          -0.265953           2.608937           1.634655           0.318953         -46.206727
hessian_block                4       4           1.193573           0.238602          -4.777530           0.238602           1.403028           4.520852          -4.777530           4.520852         210.735045
hessian_block                4       5           0.021779           0.155017           0.797055          -0.046982          -0.548899          -2.162078           0.165300          -2.383581         -43.640750
hessian_block                4       6          -0.369252          -0.134996           2.399176           0.009617           0.055409          -0.387737           2.632835           1.418586         -49.244259
hessian_block                5       5           0.948976          -0.048288          -4.058688          -0.048288           1.158935          -4.686048          -4.058688          -4.686048         264.344018
hessian_block                5       6          -0.134170           0.004792           1.875590           0.032428           0.066003          -1.886709          -1.952372          -3.317374          82.925889
hessian_block                6       6           0.911618          -0.032774           3.495609          -0.032774           1.090271          -3.445929           3.495609          -3.445929         277.236718
hessian_block_lv             1       1          18.320345           9.267492          -0.468390           9.267492          10.313602          -0.049451          -0.468390          -0.049451           0.071757
hessian_block_lv_atom        1       1          -0.107412           0.177196          -0.005310          -0.520805           0.156067          -0.026236           9.058970           8.846419           0.706565
hessian_block_lv_atom        1       2          -0.195737          -0.213469          -0.019365           0.066368          -0.223653           0.005011          -4.623622          -5.782934          -0.544653
hessian_block_lv_atom        1       3           0.158003          -0.166414           0.007966          -0.837430          -0.206010          -0.061403           7.722747           7.128263           0.548675
hessian_block_lv_atom        1       4           0.102400           0.197943           0.014901           0.217739           0.131495           0.021107          -1.796442          -4.269545          -0.271232
hessian_block_lv_atom        1       5          -0.058706           0.209410          -0.002913           0.378243          -0.111450           0.013110          -5.802648          -3.775978          -0.293609
hessian_block_lv_atom        1       6           0.101453          -0.204665           0.004720           0.695885           0.253551           0.048411          -4.559005          -2.146226          -0.145747
