#=======================================================
# FHI-aims file: ./geometry.in
# Created using the Atomic Simulation Environment (ASE)
# Thu Mar 19 17:13:27 2020
#=======================================================
lattice_vector 5.4100000000000001 0.0000000000000000 0.0000000000000000 
lattice_vector 0.0000000000000000 5.4100000000000001 0.0000000000000000 
lattice_vector 0.0000000000000000 0.0000000000000000 5.4100000000000001 
atom_frac 0.0000000000000000 0.0000000000000000 0.0000000000000000 Fe
atom_frac 0.0000000000000000 0.5000000000000000 0.5000000000000000 Fe
atom_frac 0.5000000000000000 0.0000000000000000 0.5000000000000000 Fe
atom_frac 0.5000000000000000 0.5000000000000000 0.0000000000000000 Fe
atom_frac 0.3860000000000000 0.3860000000000000 0.3860000000000000 S
atom_frac 0.6140000000000001 0.6140000000000001 0.6140000000000001 S
atom_frac 0.8860000000000000 0.1140000000000000 0.6140000000000001 S
atom_frac 0.1140000000000000 0.8860000000000000 0.3860000000000000 S
atom_frac 0.6140000000000001 0.8860000000000000 0.1140000000000000 S
atom_frac 0.3860000000000000 0.1140000000000000 0.8860000000000000 S
atom_frac 0.1140000000000000 0.6140000000000001 0.8860000000000000 S
atom_frac 0.8860000000000000 0.3860000000000000 0.1140000000000000 S
