# 
# This is the geometry file that corresponds to the current relaxation step.
# If you do not want this file to be written, set the "write_restart_geometry" flag to .false.
#  aims_uuid : 9283D0D1-AE88-4171-A741-E1BBE765A307                                
# 
lattice_vector      3.77924514      0.00000000      0.00000000
lattice_vector     -1.88962257      3.27292230      0.00000000
lattice_vector      0.00000000      0.00000000      4.94237722
atom_frac      -0.00036646     -0.00033711     -0.00023685 Pt
atom_frac       0.33316121      0.66621795      0.26034891 Se
atom_frac       0.66648169      0.33339559      0.73916436 Se
# 
# What follows is the current estimated Hessian matrix constructed by the BFGS algorithm.
# This is NOT the true Hessian matrix of the system.
# If you do not want this information here, switch it off using the "hessian_to_restart_geometry" keyword.
# 
trust_radius             0.0500000007
hessian_block                1       1          10.425956          -0.177722           0.632071          -0.177722           6.672421          -0.435131           0.632071          -0.435131          23.476640
hessian_block                1       2          -4.138586          -0.348028          -0.468723           0.211824          -2.138684           0.532985           0.167221           0.196770          -9.991211
hessian_block                1       3          -4.424286          -0.405792          -0.163348          -0.965644          -2.670654          -0.097855          -0.799292           0.238361         -10.412419
hessian_block                2       2           5.518818          -1.506306           0.461718          -1.506306           5.381746          -0.680813           0.461718          -0.680813          15.370204
hessian_block                2       3           0.482852           0.362941          -0.628939           0.922793          -1.379979           0.484043           0.007005           0.147828          -2.305982
hessian_block                3       3           5.804518          -0.888690           0.792287          -0.888690           5.913716          -0.386189           0.792287          -0.386189          15.791412
hessian_block_lv             1       1          36.861935           6.442737           0.000000           6.442737           2.184700           0.000000           0.000000           0.000000           0.000000
hessian_block_lv_atom        1       1           0.509440           0.326990           0.000000           0.067042           0.071715           0.000000           0.257183           0.079885           0.000000
hessian_block_lv_atom        1       2           1.129883           0.098337           0.000000           1.962879           0.326513           0.000000           3.460149           2.555449           0.000000
hessian_block_lv_atom        1       3          -1.639323          -0.425327           0.000000          -2.029921          -0.398228           0.000000          -3.717332          -2.635334           0.000000
