# 
# This is the geometry file that corresponds to the current relaxation step.
# If you do not want this file to be written, set the "write_restart_geometry" flag to .false.
#  aims_uuid : 53AA7D49-7224-4AF8-A30F-7F1981762E38                                
# 
lattice_vector      3.28830378      0.00000000      0.00000000
lattice_vector     -1.64415189      2.84775461      0.00000000
lattice_vector      0.00000000      0.00000000    102.47094737
atom_frac       0.00012779      0.00025428      0.50046732 Se
atom_frac       0.33357560      0.66710347      0.48398779 W
atom_frac       0.00010839      0.00026579      0.46750857 Se
# 
# What follows is the current estimated Hessian matrix constructed by the BFGS algorithm.
# This is NOT the true Hessian matrix of the system.
# If you do not want this information here, switch it off using the "hessian_to_restart_geometry" keyword.
# 
trust_radius             0.0250000004
hessian_block                1       1           1.488557          -0.416304         -15.303620          -0.416304           1.247237         -11.827074         -15.303620         -11.827074        2882.677488
hessian_block                1       2          -1.909671           0.280536          32.647510           0.324015          -1.435349          23.729943          10.436427           1.038798       -1849.901588
hessian_block                1       3           0.641619           0.025515         -17.343890          -0.017964           0.408618         -11.902869           4.867193          10.788276        -813.399996
hessian_block                2       2           4.008709          -0.643974         -17.492448          -0.643974           3.050332          -3.187665         -17.492448          -3.187665        3628.061943
hessian_block                2       3          -1.878532           0.209706           7.056021           0.253185          -1.394477           2.148866         -15.155062         -20.542279       -1558.784451
hessian_block                3       3           1.457419          -0.345474          10.287869          -0.345474           1.206365           9.754002          10.287869           9.754002        2591.560351
hessian_block_lv             1       1          39.157150           0.725509           0.000000           0.725509           0.024976           0.000000           0.000000           0.000000           0.000000
hessian_block_lv_atom        1       1          -2.609971          -0.059218           0.000000          -1.305191          -0.045878           0.000000         194.999961           6.911387           0.000000
hessian_block_lv_atom        1       2           5.571249           0.130766           0.000000           2.691879           0.090421           0.000000         -52.126701          -0.910968           0.000000
hessian_block_lv_atom        1       3          -2.961278          -0.071548           0.000000          -1.386687          -0.044543           0.000000        -142.873260          -6.000419           0.000000
