# 
# This is the geometry file that corresponds to the current relaxation step.
# If you do not want this file to be written, set the "write_restart_geometry" flag to .false.
#  aims_uuid : 0B830674-4E3F-4428-AF28-3A531027370A                                
# 
lattice_vector      3.77978196      0.00000000      0.00000000
lattice_vector     -1.88989098      3.27338719      0.00000000
lattice_vector      0.00000000      0.00000000      4.95602472
atom_frac      -0.00033843     -0.00034486     -0.00025948 Pt
atom_frac       0.33317717      0.66616873      0.25923196 Se
atom_frac       0.66635566      0.33337053      0.74022193 Se
# 
# What follows is the current estimated Hessian matrix constructed by the BFGS algorithm.
# This is NOT the true Hessian matrix of the system.
# If you do not want this information here, switch it off using the "hessian_to_restart_geometry" keyword.
# 
trust_radius             0.1000000015
hessian_block                1       1           9.098584          -0.127962           0.627909          -0.127962           7.188634          -0.478891           0.627909          -0.478891          24.208928
hessian_block                1       2          -3.445345          -0.313562          -0.454788          -0.061599          -2.432911           0.705847           0.346141           0.605971         -10.282692
hessian_block                1       3          -3.790155          -0.490017          -0.173121          -0.741981          -2.892640          -0.226956          -0.974050          -0.127080         -10.853225
hessian_block                2       2           5.261282          -1.283243           0.618431          -1.283243           5.608429          -1.281036           0.618431          -1.281036          15.488053
hessian_block                2       3           0.047147           0.413300          -0.964572           0.665264          -1.312435           0.675065          -0.163643           0.575189          -2.132350
hessian_block                3       3           5.606092          -0.854825           1.137693          -0.854825           6.068158          -0.448109           1.137693          -0.448109          16.058586
hessian_block_lv             1       1          35.127717           5.875700           0.000000           5.875700           2.053191           0.000000           0.000000           0.000000           0.000000
hessian_block_lv_atom        1       1           0.577448           0.327360           0.000000           0.327078           0.205652           0.000000           0.366312           0.103624           0.000000
hessian_block_lv_atom        1       2           1.513645           0.208567           0.000000           2.192814           0.210560           0.000000           3.149480           2.623230           0.000000
hessian_block_lv_atom        1       3          -2.091093          -0.535928           0.000000          -2.519892          -0.416211           0.000000          -3.515792          -2.726854           0.000000
