# 
# This is the geometry file that corresponds to the current relaxation step.
# If you do not want this file to be written, set the "write_restart_geometry" flag to .false.
#  aims_uuid : 8CB99ADC-FDA2-4B4A-ABD5-4A6D60518F21                                
# 
lattice_vector      3.72001946      0.00000000      0.00000000
lattice_vector     -1.86000973      3.22163135      0.00000000
lattice_vector      0.00000000      0.00000000    101.63088782
atom_frac       0.00062679      0.66720202      0.50134529 Se
atom_frac       0.33417269      0.33421635      0.47531876 Se
atom_frac       0.66737857      0.00075969      0.48833524 Pt
# 
# What follows is the current estimated Hessian matrix constructed by the BFGS algorithm.
# This is NOT the true Hessian matrix of the system.
# If you do not want this information here, switch it off using the "hessian_to_restart_geometry" keyword.
# 
trust_radius             0.0512572434
hessian_block                1       1           1.141249          -0.662672          -6.469858          -0.662672           0.960410           2.753679          -6.469858           2.753679        1092.681524
hessian_block                1       2           0.056398           0.081856           2.576365           0.031337           0.062795          -0.885639          -1.680538           2.294297          13.856370
hessian_block                1       3          -0.953640           0.458812           3.893493           0.509332          -0.779198          -1.868040           8.150396          -5.047975        -927.384957
hessian_block                2       2           1.061789          -0.569481           0.934941          -0.569481           1.046435          -2.116604           0.934941          -2.116604         940.528392
hessian_block                2       3          -0.874180           0.416140           0.745597           0.365621          -0.865223          -0.177692          -3.511306           3.002243        -775.231824
hessian_block                3       3           2.071827          -0.996956          -4.639090          -0.996956           1.888428           2.045732          -4.639090           2.045732        1881.769718
hessian_block_lv             1       1          18.276541           0.092798           0.000000           0.092798           0.004842           0.000000           0.000000           0.000000           0.000000
hessian_block_lv_atom        1       1          -0.626810           0.008942           0.000000           0.359194          -0.009658           0.000000          74.718420           0.819858           0.000000
hessian_block_lv_atom        1       2           0.012997           0.000054           0.000000           0.001298           0.005137           0.000000         -49.498565          -1.484609           0.000000
hessian_block_lv_atom        1       3           0.613813          -0.008996           0.000000          -0.360492           0.004521           0.000000         -25.219854           0.664751           0.000000
