#=======================================================
# FHI-aims file: ./geometry.in
# Created using the Atomic Simulation Environment (ASE)
# Fri Nov 22 16:42:51 2019
#=======================================================
lattice_vector 3.3499926220471199 0.0000000000000000 0.0000000000000000 
lattice_vector -1.6749963110235599 2.9011787131832500 0.0000000000000000 
lattice_vector 0.0000000000000000 0.0000000000000000 100.0000000000000000 
atom -0.0000000000000000 0.0000000000000000 8.8875854099999998 Mn
initial_moment         3.000000
atom 1.6749963100000000 0.9670595700000000 10.2083376599999998 S
initial_moment         0.000000
atom -0.0000000000000000 1.9341191400000000 7.5668331200000001 S
initial_moment         0.000000
