# 
# This is the geometry file that corresponds to the current relaxation step.
# If you do not want this file to be written, set the "write_restart_geometry" flag to .false.
#  aims_uuid : 8ACBEE91-2DC1-493F-A663-CD2D0D6EE518                                
# 
lattice_vector      3.28814247      0.00000000      0.00000000
lattice_vector     -1.64407123      2.84761491      0.00000000
lattice_vector      0.00000000      0.00000000    102.59823336
atom_frac       0.00014179      0.00029874      0.50051572 Se
atom_frac       0.33357740      0.66710051      0.48405676 W
atom_frac       0.00014065      0.00032043      0.46760028 Se
# 
# What follows is the current estimated Hessian matrix constructed by the BFGS algorithm.
# This is NOT the true Hessian matrix of the system.
# If you do not want this information here, switch it off using the "hessian_to_restart_geometry" keyword.
# 
trust_radius             0.0125000002
hessian_block                1       1           1.408505          -0.481045         -11.953611          -0.481045           1.372883         -20.575936         -11.953611         -20.575936        3525.362942
hessian_block                1       2          -1.765074           0.312737          34.115133           0.488787          -1.657349          37.160218          17.905470           9.248325       -2591.713280
hessian_block                1       3           0.577074           0.058055         -22.161521          -0.117995           0.504972         -16.584282          -5.951859          11.327611        -714.273758
hessian_block                2       2           3.796054          -0.804190         -37.544914          -0.804190           3.434939         -16.248440         -37.544914         -16.248440        4218.994995
hessian_block                2       3          -1.810474           0.205150          19.639444           0.381200          -1.557084           7.000114           3.429782         -20.911778       -1407.905811
hessian_block                3       3           1.453906          -0.373458           2.522077          -0.373458           1.272618           9.584168           2.522077           9.584168        2341.555473
hessian_block_lv             1       1          24.727190           0.462635           0.000000           0.462635           0.024105           0.000000           0.000000           0.000000           0.000000
hessian_block_lv_atom        1       1          -1.173765          -0.033129           0.000000          -0.877310          -0.060199           0.000000         160.872154           8.000845           0.000000
hessian_block_lv_atom        1       2           3.103002           0.098017           0.000000           1.538217           0.108815           0.000000        -103.117723          -3.188949           0.000000
hessian_block_lv_atom        1       3          -1.929238          -0.064888           0.000000          -0.660907          -0.048616           0.000000         -57.754431          -4.811896           0.000000
