# 
# This is the geometry file that corresponds to the current relaxation step.
# If you do not want this file to be written, set the "write_restart_geometry" flag to .false.
#  aims_uuid : 710267B6-CA50-4BAA-A74C-8472CCB9FC99                                
# 
lattice_vector      3.28818280      0.00000000      0.00000000
lattice_vector     -1.64409140      2.84764984      0.00000000
lattice_vector      0.00000000      0.00000000    102.37238785
atom_frac       0.00015025      0.00026581      0.50046527 Se
atom_frac       0.33353543      0.66705458      0.48397078 W
atom_frac       0.00011435      0.00027966      0.46747653 Se
# 
# What follows is the current estimated Hessian matrix constructed by the BFGS algorithm.
# This is NOT the true Hessian matrix of the system.
# If you do not want this information here, switch it off using the "hessian_to_restart_geometry" keyword.
# 
trust_radius             0.0250000004
hessian_block                1       1           1.903341          -0.372452         -17.723361          -0.372452           1.314711         -15.896246         -17.723361         -15.896246        2978.857280
hessian_block                1       2          -2.672136           0.182835          38.079325           0.197100          -1.546292          30.066035          15.248190           3.163537       -1838.062484
hessian_block                1       3           0.989301           0.079363         -20.355963           0.065099           0.452086         -14.169789           2.475171          12.732709        -921.418892
hessian_block                2       2           5.408110          -0.389449         -26.787079          -0.389449           3.240413          -7.773220         -26.787079          -7.773220        3490.499008
hessian_block                2       3          -2.515468           0.082096          11.538889           0.096361          -1.473615           4.609683         -11.292245         -22.292815       -1433.060620
hessian_block                3       3           1.746673          -0.271712           8.817074          -0.271712           1.242034           9.560106           8.817074           9.560106        2573.855416
hessian_block_lv             1       1          39.336030           0.724813           0.000000           0.724813           0.025095           0.000000           0.000000           0.000000           0.000000
hessian_block_lv_atom        1       1          -3.285642          -0.071377           0.000000          -1.679955          -0.056416           0.000000         199.482925           7.192890           0.000000
hessian_block_lv_atom        1       2           6.967326           0.155284           0.000000           3.173181           0.105825           0.000000         -62.451127          -1.241053           0.000000
hessian_block_lv_atom        1       3          -3.681684          -0.083907           0.000000          -1.493226          -0.049409           0.000000        -137.031798          -5.951837           0.000000
