# 
# This is the geometry file that corresponds to the current relaxation step.
# If you do not want this file to be written, set the "write_restart_geometry" flag to .false.
#  aims_uuid : 64CC8C99-8F23-4476-A386-3271E7475BFF                                
# 
lattice_vector      3.28813763      0.00000000      0.00000000
lattice_vector     -1.64406881      2.84761072      0.00000000
lattice_vector      0.00000000      0.00000000     13.21816042
atom_frac       0.32941849      0.66490169      0.25263181 W
atom_frac       0.67586692      0.34033912      0.75264495 W
atom_frac       0.34240801      0.67360589      0.88033643 Se
atom_frac       0.66285330      0.33167911      0.38031061 Se
atom_frac       0.66285905      0.33167117      0.12494348 Se
atom_frac       0.34240210      0.67361090      0.62494060 Se
# 
# What follows is the current estimated Hessian matrix constructed by the BFGS algorithm.
# This is NOT the true Hessian matrix of the system.
# If you do not want this information here, switch it off using the "hessian_to_restart_geometry" keyword.
# 
trust_radius             0.0016521813
hessian_block                1       1         476.434478         156.027355          55.320470         156.027355          99.065989         -45.518390          55.320470         -45.518390         349.861725
hessian_block                1       2        -460.252654        -177.748593         -15.724367        -165.057676         -69.016267           0.459498          86.446913         -62.755721         155.495922
hessian_block                1       3          -1.811676          -1.381039           0.324453           5.720609           4.127670          -1.851570          -2.705350          62.210332        -107.259997
hessian_block                1       4          -5.697155          11.989634         -19.858937          -1.550184         -18.633712          24.144657         -41.172142         126.727107        -381.318057
hessian_block                1       5          -6.669485          12.830460         -21.255429          -0.597612         -19.528834          25.488250         -26.502300         -80.505455          32.527655
hessian_block                1       6          -1.144275          -2.147434           1.193811           5.027891           4.844388          -2.722446         -71.387591          -0.157873         -34.859258
hessian_block                2       2         472.971960         163.968942         -32.065908         163.968942          72.315167           0.243326         -32.065908           0.243326         466.914907
hessian_block                2       3          -2.258601           3.685219           0.543112          -4.259619          -7.286400          -4.200143         -34.183649         -18.570854        -284.716167
hessian_block                2       4          -3.747875          -3.400529         -27.421741          10.967451           6.090157          35.116729         -45.675174         -25.447886        -362.921824
hessian_block                2       5          -3.744261          -3.106132         -29.241573          11.007835           5.813459          36.929470          71.435697          25.643775         198.362677
hessian_block                2       6          -2.109336           3.480560           1.739197          -4.365633          -7.056884          -5.333660          56.213401          17.672141        -158.687525
hessian_block                3       3           3.404569          -2.106267           0.177905          -2.106267           3.608207           3.028991           0.177905           3.028991         276.041807
hessian_block                3       4          -0.247278           0.818370          18.116720           0.395523          -0.902790         -24.651789           0.758220           4.247458         265.549472
hessian_block                3       5          -0.106798           0.678590          19.392626           0.257551          -0.763167         -25.959440          -1.983226          -1.247536        -138.696530
hessian_block                3       6           1.879017          -1.281299          -0.798251          -1.280603           2.075712           3.942759           0.179537           0.022799           3.529405
hessian_block                4       4           6.076932          -5.639660          42.217799          -5.639660           8.259322         -54.386905          42.217799         -54.386905         733.321181
hessian_block                4       5           5.008634          -5.357903          45.659779          -5.289751           7.292349         -57.863861         -20.320335          28.432126        -322.396487
hessian_block                4       6          -0.534025           0.755156          -1.788481           1.092320          -1.246094           6.724088           7.266495          -8.654817          82.213705
hessian_block                5       5           6.822588          -6.484637         -22.290642          -6.484637           9.210867          30.491525         -22.290642          30.491525         294.714052
hessian_block                5       6          -0.451445           0.676997          -0.339193           1.010005          -1.165442          -2.814435           7.735240          -9.085945         -50.063376
hessian_block                6       6           3.219297          -1.913596          -0.007083          -1.913596           3.407552           0.203694          -0.007083           0.203694         172.315040
hessian_block_lv             1       1         122.598029          12.519619           0.000000          12.519619           2.607869           0.000000           0.000000           0.000000           0.000000
hessian_block_lv_atom        1       1         -16.987631           4.587890           0.000000          43.294475           7.225579           0.000000         -92.717653         -11.199683           0.000000
hessian_block_lv_atom        1       2         -11.648276          -8.121104           0.000000          -9.691876          -2.790007           0.000000        -122.824026         -15.952260           0.000000
hessian_block_lv_atom        1       3          -0.719060           0.134491           0.000000           2.589558           0.154819           0.000000         112.238215          20.012059           0.000000
hessian_block_lv_atom        1       4          14.898875           1.618795           0.000000         -19.238571          -2.355742           0.000000         219.857178          31.740402           0.000000
hessian_block_lv_atom        1       5          15.996153           1.738039           0.000000         -20.346916          -2.478030           0.000000        -117.325234         -19.448017           0.000000
hessian_block_lv_atom        1       6          -1.540061           0.041889           0.000000           3.393330           0.243381           0.000000           0.771520          -5.152500           0.000000
