# 
# This is the geometry file that corresponds to the current relaxation step.
# If you do not want this file to be written, set the "write_restart_geometry" flag to .false.
#  aims_uuid : AAEE1DAE-9DB3-4F20-A771-023F461B5FA7                                
# 
lattice_vector      3.77942918      0.00000000      0.00000000
lattice_vector     -1.88971459      3.27308168      0.00000000
lattice_vector      0.00000000      0.00000000      4.95653727
atom_frac      -0.00033702     -0.00034179     -0.00026200 Pt
atom_frac       0.33315697      0.66615511      0.25928171 Se
atom_frac       0.66637256      0.33337918      0.74017279 Se
# 
# What follows is the current estimated Hessian matrix constructed by the BFGS algorithm.
# This is NOT the true Hessian matrix of the system.
# If you do not want this information here, switch it off using the "hessian_to_restart_geometry" keyword.
# 
trust_radius             0.1000000015
hessian_block                1       1           9.078241          -0.151728           0.623023          -0.151728           7.163951          -0.468432           0.623023          -0.468432          24.207215
hessian_block                1       2          -3.457865          -0.317732          -0.438650          -0.031234          -2.410036           0.682383           0.345853           0.590012         -10.279651
hessian_block                1       3          -3.757293          -0.462081          -0.184373          -0.748579          -2.890832          -0.213951          -0.968875          -0.121580         -10.854554
hessian_block                2       2           5.254766          -1.295493           0.540599          -1.295493           5.614223          -1.177856           0.540599          -1.177856          15.599450
hessian_block                2       3           0.066183           0.395186          -0.886452           0.681684          -1.341103           0.587844          -0.101950           0.495473          -2.246788
hessian_block                3       3           5.554193          -0.864646           1.070825          -0.864646           6.095018          -0.373893           1.070825          -0.373893          16.174353
hessian_block_lv             1       1          35.094593           6.014947           0.000000           6.014947           2.087928           0.000000           0.000000           0.000000           0.000000
hessian_block_lv_atom        1       1           0.617048           0.327321           0.000000           0.349641           0.201356           0.000000           0.336038           0.102595           0.000000
hessian_block_lv_atom        1       2           1.474959           0.194089           0.000000           2.274543           0.263623           0.000000           3.305022           2.632564           0.000000
hessian_block_lv_atom        1       3          -2.092007          -0.521410           0.000000          -2.624184          -0.464980           0.000000          -3.641060          -2.735159           0.000000
