# 
# This is the geometry file that corresponds to the current relaxation step.
# If you do not want this file to be written, set the "write_restart_geometry" flag to .false.
#  aims_uuid : 4F651976-5B83-49A1-A018-83DE916A7DB3                                
# 
lattice_vector      3.77938599      0.00000000      0.00000000
lattice_vector     -1.88969299      3.27304427      0.00000000
lattice_vector      0.00000000      0.00000000      4.96517327
atom_frac      -0.00026231     -0.00030122     -0.00025758 Pt
atom_frac       0.33319310      0.66621836      0.25877530 Se
atom_frac       0.66625206      0.33326570      0.74066513 Se
# 
# What follows is the current estimated Hessian matrix constructed by the BFGS algorithm.
# This is NOT the true Hessian matrix of the system.
# If you do not want this information here, switch it off using the "hessian_to_restart_geometry" keyword.
# 
trust_radius             0.1000000015
hessian_block                1       1           8.487319          -0.388536           0.665349          -0.388536           7.139166          -0.500765           0.665349          -0.500765          24.468265
hessian_block                1       2          -3.255042          -0.272774          -0.486391          -0.068869          -2.466698           0.776615           0.111443           0.533766         -10.266410
hessian_block                1       3          -3.369194          -0.270232          -0.178958          -0.474137          -2.809385          -0.275850          -0.776792          -0.033001         -11.128844
hessian_block                2       2           5.331682          -1.333191           0.696819          -1.333191           5.824025          -1.353326           0.696819          -1.353326          15.506278
hessian_block                2       3          -0.213557           0.470519          -0.808262           0.674424          -1.494244           0.819560          -0.210428           0.576710          -2.166857
hessian_block                3       3           5.445834          -1.131829           0.987220          -1.131829           6.166711          -0.543709           0.987220          -0.543709          16.368712
hessian_block_lv             1       1          33.854994           5.574167           0.000000           5.574167           1.977380           0.000000           0.000000           0.000000           0.000000
hessian_block_lv_atom        1       1           0.419746           0.163215           0.000000           0.250971           0.129651           0.000000           0.519674           0.134885           0.000000
hessian_block_lv_atom        1       2           1.660196           0.270522           0.000000           2.564980           0.248138           0.000000           2.959540           2.524274           0.000000
hessian_block_lv_atom        1       3          -2.079942          -0.433737           0.000000          -2.815952          -0.377789           0.000000          -3.479214          -2.659159           0.000000
