# 
# This is the geometry file that corresponds to the current relaxation step.
# If you do not want this file to be written, set the "write_restart_geometry" flag to .false.
#  aims_uuid : 3C4EC454-ECF7-42CE-AA90-BA42EC05EAD0                                
# 
lattice_vector      3.28758639      0.00000000      0.00000000
lattice_vector     -1.64379320      2.84713333      0.00000000
lattice_vector      0.00000000      0.00000000     13.24534078
atom_frac       0.32907529      0.66482206      0.25229041 W
atom_frac       0.67554052      0.33985075      0.75227914 W
atom_frac       0.34219645      0.67311108      0.87974529 Se
atom_frac       0.66236532      0.33142301      0.37973722 Se
atom_frac       0.66236548      0.33141934      0.12484294 Se
atom_frac       0.34219393      0.67311075      0.62484200 Se
# 
# What follows is the current estimated Hessian matrix constructed by the BFGS algorithm.
# This is NOT the true Hessian matrix of the system.
# If you do not want this information here, switch it off using the "hessian_to_restart_geometry" keyword.
# 
trust_radius             0.0055566469
hessian_block                1       1         499.714633         164.415983          -5.303168         164.415983          68.058510           0.576535          -5.303168           0.576535         237.493383
hessian_block                1       2        -495.495758        -169.871457           6.329205        -165.516729         -60.557901           0.443136          -8.826145          -3.154504         -13.800862
hessian_block                1       3           4.883027           0.350830          -0.501993           2.063743           2.116840           0.485345          17.108929           1.615906          10.258651
hessian_block                1       4          -6.564038           2.188387           0.074498          -1.751989          -5.473517          -1.039400          16.233325           1.315111        -105.413361
hessian_block                1       5          -6.573358           2.161101          -0.028631          -1.712782          -5.434663          -0.984414         -16.657128          -2.485208        -116.491550
hessian_block                1       6           4.894726           0.325541          -0.569910           2.072158           2.149964           0.518799          -2.555814           2.132161           2.401729
hessian_block                2       2         507.808813         161.743732          10.529464         161.743732          67.245309           6.995744          10.529464           6.995744         202.939634
hessian_block                2       3          -8.910878           1.675478          -1.115611           0.083630          -5.580027          -2.390534         -17.384576          -5.559806         -91.444967
hessian_block                2       4           3.200153           0.012444           0.311408           3.733701           2.601972           0.314268         -13.954125          -6.796127          13.637659
hessian_block                2       5           3.170554          -0.013246           0.243871           3.780218           2.678043           0.489886          15.699223           4.554152           1.717565
hessian_block                2       6          -8.913651           1.668704          -1.142988           0.100559          -5.528164          -2.254860          -1.219192           0.362900         -98.601040
hessian_block                3       3           3.657402          -1.954058           1.271636          -1.954058           3.402097           0.191053           1.271636           0.191053         111.999764
hessian_block                3       4          -0.522024           0.304003          -1.124059           0.396514          -0.502883           1.871316          -0.746177           0.852009          13.017345
hessian_block                3       5          -0.503989           0.318439          -1.122821           0.366202          -0.543661           1.766212          -0.547996           0.340421         -11.335003
hessian_block                3       6           2.255694          -1.245374           1.250890          -1.264583           1.966865           0.115319           1.640141           0.521706         -18.047800
hessian_block                4       4           3.342040          -1.966786          -0.469355          -1.966786           3.090848           2.010122          -0.469355           2.010122         135.263405
hessian_block                4       5           1.935439          -1.249197          -0.367786          -1.274126           1.662729           1.860194           1.018382          -1.452593          -6.562683
hessian_block                4       6          -0.532336           0.408141          -0.695882           0.306462          -0.519917           0.758691           0.189125          -1.703712         -35.494375
hessian_block                5       5           3.344207          -1.966065           1.019844          -1.966065           3.054102          -1.359149           1.019844          -1.359149         125.019811
hessian_block                5       6          -0.513621           0.376935          -0.532326           0.319351          -0.557317           0.402378           0.255523          -1.772728          22.099850
hessian_block                6       6           3.668421          -1.963563           1.690217          -1.963563           3.347801           0.459674           1.690217           0.459674         142.089627
hessian_block_lv             1       1          61.568458           4.912489           0.000000           4.912489           1.697654           0.000000           0.000000           0.000000           0.000000
hessian_block_lv_atom        1       1          -7.677642           3.283192           0.000000          -1.675246           0.569840           0.000000          -9.773431           0.968952           0.000000
hessian_block_lv_atom        1       2          10.169302          -2.944619           0.000000           0.308712          -0.784967           0.000000           7.288695           0.168996           0.000000
hessian_block_lv_atom        1       3          -2.448836           0.001691           0.000000           0.805939          -0.048782           0.000000          17.709280           7.726960           0.000000
hessian_block_lv_atom        1       4           1.216029          -0.169369           0.000000          -0.141208           0.164018           0.000000          36.972534           8.812775           0.000000
hessian_block_lv_atom        1       5           1.202356          -0.169225           0.000000          -0.121737           0.153907           0.000000         -17.883069          -7.800682           0.000000
hessian_block_lv_atom        1       6          -2.461209          -0.001670           0.000000           0.823540          -0.054016           0.000000         -34.314009          -9.877000           0.000000
