# 
# This is the geometry file that corresponds to the current relaxation step.
# If you do not want this file to be written, set the "write_restart_geometry" flag to .false.
#  aims_uuid : DB2D9781-DCC2-43D2-A56F-0AFA51306ADD                                
# 
lattice_vector      3.72005698      0.00000000      0.00000000
lattice_vector     -1.86002849      3.22166385      0.00000000
lattice_vector      0.00000000      0.00000000    101.67147130
atom_frac       0.00078839      0.66740938      0.50127625 Se
atom_frac       0.33389115      0.33391527      0.47526079 Se
atom_frac       0.66736702      0.00072191      0.48827002 Pt
# 
# What follows is the current estimated Hessian matrix constructed by the BFGS algorithm.
# This is NOT the true Hessian matrix of the system.
# If you do not want this information here, switch it off using the "hessian_to_restart_geometry" keyword.
# 
trust_radius             0.0457861836
hessian_block                1       1           1.171676          -0.640735          -5.003119          -0.640735           1.137426           4.262773          -5.003119           4.262773        1119.786265
hessian_block                1       2           0.017464           0.049090           1.164487           0.078699           0.007657          -2.102179          -2.280699           0.103536           3.173000
hessian_block                1       3          -0.945133           0.469642           3.838632           0.440032          -0.901076          -2.160593           7.283818          -4.366308        -943.806327
hessian_block                2       2           1.029420          -0.651566           3.165838          -0.651566           0.982823           0.044014           3.165838           0.044014         937.814659
hessian_block                2       3          -0.802877           0.450863          -0.885139           0.480473          -0.746474          -0.147550          -4.330325           2.058165        -761.834721
hessian_block                3       3           1.992017          -1.042509          -2.953493          -1.042509           1.891557           2.308143          -2.953493           2.308143        1884.793985
hessian_block_lv             1       1          18.209949           0.100866           0.000000           0.100866           0.004544           0.000000           0.000000           0.000000           0.000000
hessian_block_lv_atom        1       1          -0.489054           0.009559           0.000000           0.493420          -0.005411           0.000000          75.022843           0.939979           0.000000
hessian_block_lv_atom        1       2          -0.074574          -0.004872           0.000000          -0.075173           0.000961           0.000000         -52.570750          -1.372713           0.000000
hessian_block_lv_atom        1       3           0.563628          -0.004687           0.000000          -0.418247           0.004450           0.000000         -22.452094           0.432734           0.000000
