# 
# This is the geometry file that corresponds to the current relaxation step.
# If you do not want this file to be written, set the "write_restart_geometry" flag to .false.
#  aims_uuid : E68D0A47-F0F9-45D1-A67B-E073BE657029                                
# 
lattice_vector      3.28799060      0.00000000      0.00000000
lattice_vector     -1.64399530      2.84748339      0.00000000
lattice_vector      0.00000000      0.00000000     13.22776622
atom_frac       0.33107472      0.66623615      0.25428980 W
atom_frac       0.67735816      0.34220653      0.75413875 W
atom_frac       0.34385837      0.67548943      0.88171130 Se
atom_frac       0.66453994      0.33294744      0.38186634 Se
atom_frac       0.66445888      0.33303159      0.12670383 Se
atom_frac       0.34397467      0.67535360      0.62655472 Se
# 
# What follows is the current estimated Hessian matrix constructed by the BFGS algorithm.
# This is NOT the true Hessian matrix of the system.
# If you do not want this information here, switch it off using the "hessian_to_restart_geometry" keyword.
# 
trust_radius             0.0443577033
hessian_block                1       1         467.729870         173.624493         -80.520116         173.624493          79.572059         -32.138932         -80.520116         -32.138932         255.917960
hessian_block                1       2        -458.274146        -176.045320          87.146930        -181.303141         -73.824016          26.938959         -89.875831         -35.272398          17.948772
hessian_block                1       3          -3.652666          -2.909680          -0.128507          13.541478           6.679846          -1.816877         126.158555          47.080961          -3.131351
hessian_block                1       4          -0.582682           3.855063          -2.519124          -9.883941          -9.045381           3.441209         103.534994          46.747440        -146.445035
hessian_block                1       5          -0.577558           4.089317          -0.238296          -9.915285          -9.323655           1.179037         -41.437300         -18.062711        -110.468675
hessian_block                1       6          -3.783586          -3.043489          -3.740887          13.506780           6.800379           2.396604         -17.860301          -8.354359           0.626320
hessian_block                2       2         464.008973         176.009777          87.706009         176.009777          82.708298          38.943303          87.706009          38.943303         249.224099
hessian_block                2       3           0.149584           4.445022           2.157651         -11.747219         -10.199063          -7.465447        -122.449456         -50.345416        -118.224389
hessian_block                2       4          -2.467270          -2.077932          -0.709023          11.325929           6.236386           4.902497        -108.861569         -40.404913         -26.721529
hessian_block                2       5          -2.444394          -1.972585           2.069184          11.302382           6.126194           2.091454          39.622269          17.538417          -4.847398
hessian_block                2       6          -0.113515           4.469243          -1.347990         -11.275166         -10.188567          -3.199410          16.835816           7.329650        -102.931565
hessian_block                3       3           3.334803          -2.281006          -2.743633          -2.281006           4.341986           5.710265          -2.743633           5.710265         149.671518
hessian_block                3       4          -0.416771           0.719590           0.738413           0.904143          -1.320140          -3.771665          -2.238096           2.756467          27.716751
hessian_block                3       5           0.012206           0.002844          -0.923394           0.476104          -0.592308          -2.083892           1.475662          -0.346487         -15.743910
hessian_block                3       6           1.432077          -0.665303          -0.780485          -1.064199           1.948912           3.409747           1.476924           1.162079         -25.840629
hessian_block                4       4           2.986173          -2.081230           4.383733          -2.081230           3.721742          -5.270250           4.383733          -5.270250         187.163583
hessian_block                4       5           1.292459          -1.030737           3.625219          -1.079463           1.981837          -4.592004          -0.713444           0.932301         -16.220843
hessian_block                4       6           0.047323           0.336219          -0.444281           0.234355          -0.715211           0.763261          -1.180555          -0.234092         -11.044937
hessian_block                5       5           3.248864          -2.281601          -2.158739          -2.281601           3.912204           2.431617          -2.158739           2.431617         143.749872
hessian_block                5       6          -0.672345           1.068248           3.211553           0.763147          -1.245040          -2.493136          -2.373975           0.973788          17.978944
hessian_block                6       6           3.949279          -2.594533           3.102091          -2.594533           4.258760          -0.877066           3.102091          -0.877066         135.659858
hessian_block_lv             1       1          54.078739           4.408155           0.000000           4.408155           1.734252           0.000000           0.000000           0.000000           0.000000
hessian_block_lv_atom        1       1          22.110341           7.799234           0.000000          12.610762           3.461922           0.000000         -10.057526          -0.065130           0.000000
hessian_block_lv_atom        1       2         -22.684321          -7.745893           0.000000         -11.347811          -3.177306           0.000000          -0.419708           0.562485           0.000000
hessian_block_lv_atom        1       3          -1.676496          -0.344334           0.000000           1.573682           0.239349           0.000000          22.445054           8.131182           0.000000
hessian_block_lv_atom        1       4           1.900196           0.308380           0.000000          -2.168012          -0.370082           0.000000          29.241324           9.377147           0.000000
hessian_block_lv_atom        1       5           1.968573           0.312641           0.000000          -2.242787          -0.381673           0.000000         -15.965528          -8.970207           0.000000
hessian_block_lv_atom        1       6          -1.618294          -0.330028           0.000000           1.574166           0.227790           0.000000         -25.243616          -9.035477           0.000000
