#===============================================================================
# FHI-aims file: control.in
# Created using the Atomic Simulation Environment (ASE)
# Sun Nov 15 16:53:51 2020
#===============================================================================
xc                                 pbe
#include_spin_orbit
check_stacksize .false.
## Common choices of dispersion methods:
# 	 vdw_correction_hirshfeld
# 	 many_body_dispersion
# 	 many_body_dispersion_nl
spin                               none
k_grid                             21 21 1

### SCF settings 
adjust_scf 	 always 	 3 
sc_iter_limit 	 100
# frozen_core_scf 	 .true. 
# charge_mix_param 	 0.02
# occupation_type 	 gaussian 	 0.1 
# sc_accuracy_rho 	 1E-6 	 	 # electron density convergence
# elsi_restart 	 read_and_write 	 1000

### Band structure section 
## Brillouin Zone section Nr. 1
output band 0.000000 0.000000 0.000000 	 0.500000 0.000000 0.000000 	 31 	 G M
output band 0.500000 0.000000 0.000000 	 0.333333 0.333333 0.000000 	 31 	 M K
output band 0.333333 0.333333 0.000000 	 0.000000 0.000000 0.000000 	 31 	 K G

### Mulliken-projected band structure section 
## Brillouin Zone section Nr. 1
output band_mulliken 0.000000 0.000000 0.000000 	 0.500000 0.000000 0.000000 	 31 	 G M
output band_mulliken 0.500000 0.000000 0.000000 	 0.333333 0.333333 0.000000 	 31 	 M K
output band_mulliken 0.333333 0.333333 0.000000 	 0.000000 0.000000 0.000000 	 31 	 K G

### DOS section 
output species_proj_dos_tetrahedron -20 10 500
#===============================================================================

################################################################################
#
#  FHI-aims code project
#  VB, Fritz-Haber Institut, 2009
#
#  Suggested "light" defaults for N atom (to be pasted into control.in file)
#  Be sure to double-check any results obtained with these settings for post-processing,
#  e.g., with the "tight" defaults and larger basis sets.
#
################################################################################
  species        N
#     global species definitions
    nucleus             7
    mass                14.0067
#
    l_hartree           4
#
    cut_pot             3.5  1.5  1.0
    basis_dep_cutoff    1e-4
#
    radial_base         35 5.0
    radial_multiplier   1
    angular_grids       specified
      division   0.2599   50
      division   0.4601  110
      division   0.5885  194
      division   0.6503  302
#      division   0.6939  434
#      division   0.7396  590
#      division   0.7632  770
#      division   0.8122  974
#      division   1.1604 1202
#      outer_grid  974
      outer_grid  302
################################################################################
#
#  Definition of "minimal" basis
#
################################################################################
#     valence basis states
    valence      2  s   2.
    valence      2  p   3.
#     ion occupancy
    ion_occ      2  s   1.
    ion_occ      2  p   2.
################################################################################
#
#  Suggested additional basis functions. For production calculations, 
#  uncomment them one after another (the most important basis functions are
#  listed first).
#
#  Constructed for dimers: 1.0 A, 1.1 A, 1.5 A, 2.0 A, 3.0 A
#
################################################################################
#  "First tier" - improvements: -1193.42 meV to -220.60 meV
     hydro 2 p 1.8
     hydro 3 d 6.8
     hydro 3 s 5.8
#  "Second tier" - improvements: -80.21 meV to -6.86 meV
#     hydro 4 f 10.8
#     hydro 3 p 5.8
#     hydro 1 s 0.8
#     hydro 5 g 16
#     hydro 3 d 4.9
#  "Third tier" - improvements: -4.29 meV to -0.53 meV
#     hydro 3 s 16
#     ionic 2 p auto
#     hydro 3 d 6.6
#     hydro 4 f 11.6
#  "Fourth tier" - improvements: -0.75 meV to -0.25 meV
#     hydro 2 p 4.5
#     hydro 2 s 2.4
#     hydro 5 g 14.4
#     hydro 4 d 14.4
#     hydro 4 f 16.8
# Further basis functions - -0.21 meV and below
#     hydro 3 p 14.8
#     hydro 3 s 4.4
#     hydro 3 d 19.6
#     hydro 5 g 12.8
################################################################################
#
#  FHI-aims code project
#  VB, Fritz-Haber Institut, 2009
#
#  Suggested "light" defaults for B atom (to be pasted into control.in file)
#  Be sure to double-check any results obtained with these settings for post-processing,
#  e.g., with the "tight" defaults and larger basis sets.
#
################################################################################
  species        B
#     global species definitions
    nucleus             5
    mass                10.811
#
    l_hartree           4
#
    cut_pot             3.5  1.5  1.0
    basis_dep_cutoff    1e-4
#
    radial_base         32 5.0
    radial_multiplier   1
    angular_grids       specified
      division   0.3742  110
      division   0.5197  194
      division   0.5753  302
#      division   0.7664  434
#      division   0.8392  770
#      division   1.6522  974
#      outer_grid   974
      outer_grid   302
################################################################################
#
#  Definition of "minimal" basis
#
################################################################################
#     valence basis states
    valence      2  s   2.
    valence      2  p   1.
#     ion occupancy
    ion_occ      2  s   1.
################################################################################
#
#  Suggested additional basis functions. For production calculations, 
#  uncomment them one after another (the most important basis functions are
#  listed first).
#
#  Constructed for dimers: 1.25 A, 1.625 A, 2.5 A, 3.5 A
#
################################################################################
#  "First tier" - improvements: -710.52 meV to -92.39 meV
     hydro 2 p 1.4
     hydro 3 d 4.8
     hydro 2 s 4
#  "Second tier" - improvements: -33.88 meV to -2.20 meV
#     hydro 4 f 7.8
#     hydro 3 p 4.2
#     hydro 3 s 3.3
#     hydro 5 g 11.2
#     hydro 3 d 5.4
#  "Third tier" - improvements: -1.28 meV to -0.36 meV
#     hydro 2 p 4.7
#     hydro 2 s 8.4
#     hydro 4 d 5.8
#  "Fourth tier" - improvements: -0.25 meV to -0.12 meV
#     hydro 3 p 2.2
#     hydro 3 s 3
#     hydro 4 f 9.8
#     hydro 5 g 12.8
#     hydro 4 d 10
#  Further functions
#     hydro 4 f 14
#     hydro 3 p 12.4
