# 
# This is the geometry file that corresponds to the current relaxation step.
# If you do not want this file to be written, set the "write_restart_geometry" flag to .false.
#  aims_uuid : 16A3A42F-A35A-4510-A338-A7D1F91F8E20                                
# 
lattice_vector      3.28831043      0.00000000      0.00000000
lattice_vector     -1.64415521      2.84776037      0.00000000
lattice_vector      0.00000000      0.00000000    102.76156872
atom_frac       0.00039553      0.00081087      0.50149142 Se
atom_frac       0.33374923      0.66743553      0.48506173 W
atom_frac       0.00040831      0.00085975      0.46863494 Se
# 
# What follows is the current estimated Hessian matrix constructed by the BFGS algorithm.
# This is NOT the true Hessian matrix of the system.
# If you do not want this information here, switch it off using the "hessian_to_restart_geometry" keyword.
# 
trust_radius             0.0250000004
hessian_block                1       1           1.167200          -0.696131           0.197130          -0.696131           1.233976           2.995206           0.197130           2.995206        2009.768734
hessian_block                1       2          -1.224089           0.812564           3.570174           0.861874          -1.472578          -7.486061           6.644296          -2.165478       -1384.749269
hessian_block                1       3           0.277395          -0.226686          -3.767304          -0.275996           0.459107           4.490855          -6.841426          -0.829728        -405.643562
hessian_block                2       2           2.763389          -2.051808          -3.715468          -2.051808           3.623361           3.037799          -3.715468           3.037799        5034.251265
hessian_block                2       3          -1.318794           1.079681          -2.928829           1.128992          -1.930278          -0.872321           0.145294           4.448262       -3430.126092
hessian_block                3       3           1.261905          -0.963248           6.696132          -0.963248           1.691676          -3.618534           6.696132          -3.618534        4055.145558
hessian_block_lv             1       1          21.369450           0.255315           0.000000           0.255315           0.015657           0.000000           0.000000           0.000000           0.000000
hessian_block_lv_atom        1       1           0.171955           0.012893           0.000000           0.059317           0.002102           0.000000          76.454317           3.666453           0.000000
hessian_block_lv_atom        1       2           0.003571          -0.001830           0.000000          -0.022802          -0.006900           0.000000          11.896062           3.012309           0.000000
hessian_block_lv_atom        1       3          -0.175527          -0.011063           0.000000          -0.036515           0.004798           0.000000         -88.350379          -6.678762           0.000000
