# 
# This is the geometry file that corresponds to the current relaxation step.
# If you do not want this file to be written, set the "write_restart_geometry" flag to .false.
#  aims_uuid : 57ACF9FB-6DF8-4F3E-AFC9-437ABD1E8D6F                                
# 
lattice_vector      3.77966104      0.00000000      0.00000000
lattice_vector     -1.88983052      3.27328248      0.00000000
lattice_vector      0.00000000      0.00000000      4.95688023
atom_frac      -0.00031741     -0.00032768     -0.00025844 Pt
atom_frac       0.33317782      0.66618146      0.25922010 Se
atom_frac       0.66633834      0.33334498      0.74023710 Se
# 
# What follows is the current estimated Hessian matrix constructed by the BFGS algorithm.
# This is NOT the true Hessian matrix of the system.
# If you do not want this information here, switch it off using the "hessian_to_restart_geometry" keyword.
# 
trust_radius             0.1000000015
hessian_block                1       1           9.062912          -0.164542           0.677947          -0.164542           7.154858          -0.441512           0.677947          -0.441512          24.244955
hessian_block                1       2          -3.488611          -0.340436          -0.481821          -0.033296          -2.408949           0.712104           0.244326           0.528780         -10.250267
hessian_block                1       3          -3.711218          -0.426563          -0.196125          -0.733703          -2.882826          -0.270591          -0.922272          -0.087268         -10.921677
hessian_block                2       2           5.330677          -1.325357           0.605095          -1.325357           5.637035          -1.265263           0.605095          -1.265263          15.342332
hessian_block                2       3           0.021017           0.427111          -0.849421           0.734251          -1.365003           0.736483          -0.123273           0.553159          -2.019054
hessian_block                3       3           5.553284          -0.932089           1.045546          -0.932089           6.110911          -0.465892           1.045546          -0.465892          16.013742
hessian_block_lv             1       1          34.972328           5.839697           0.000000           5.839697           2.025636           0.000000           0.000000           0.000000           0.000000
hessian_block_lv_atom        1       1           0.542513           0.277279           0.000000           0.297277           0.170119           0.000000           0.402525           0.120331           0.000000
hessian_block_lv_atom        1       2           1.500203           0.207210           0.000000           2.250625           0.225587           0.000000           3.075351           2.547399           0.000000
hessian_block_lv_atom        1       3          -2.042716          -0.484489           0.000000          -2.547902          -0.395706           0.000000          -3.477876          -2.667731           0.000000
