# 
# This is the geometry file that corresponds to the current relaxation step.
# If you do not want this file to be written, set the "write_restart_geometry" flag to .false.
#  aims_uuid : D1921DE9-BAB1-4DBD-A328-44BF679B90AA                                
# 
lattice_vector      5.69523734      0.00000000      0.00000000
lattice_vector      0.00000000      5.89257313      0.00000000
lattice_vector      0.00000000      0.00000000    101.32593069
atom_frac       0.71682553     -0.00269721      0.49985694 Se
atom_frac       0.60860135      0.61640061      0.49231405 Pd
atom_frac       0.00043232      0.49724795      0.49985605 Se
atom_frac       0.10856383      0.11644638      0.49231349 Pd
atom_frac       0.21687701      0.73551567      0.48478197 Se
atom_frac       0.50037935      0.23557040      0.48478283 Se
# 
# What follows is the current estimated Hessian matrix constructed by the BFGS algorithm.
# This is NOT the true Hessian matrix of the system.
# If you do not want this information here, switch it off using the "hessian_to_restart_geometry" keyword.
# 
trust_radius             0.1120686240
hessian_block                1       1           0.847935           0.003426           3.351129           0.003426           1.210120          -2.853222           3.351129          -2.853222         268.332342
hessian_block                1       2           0.004447          -0.152023          -0.734215          -0.167215          -0.606002          -4.353389           0.040299          -3.463632         -52.478373
hessian_block                1       3          -0.062174           0.030780          -1.907609           0.033522           0.248918          -2.069643           1.683312          -0.945189          75.779763
hessian_block                1       4          -0.346003          -0.065255           2.973536          -0.163152          -0.021576           0.461758           1.779368          -0.908404         -51.993827
hessian_block                1       5           0.044731           0.088410           1.909749           0.088284          -0.203408           1.853348          -1.699323           2.097398         -43.621825
hessian_block                1       6          -0.199935           0.094662          -5.592590           0.205136          -0.324082           6.961149          -5.154785           6.073049        -104.951274
hessian_block                2       2           1.249864           0.019476           4.992380           0.019476           1.427089           3.683203           4.992380           3.683203         228.567345
hessian_block                2       3          -0.379085           0.165265          -1.823735           0.287355          -0.270123           2.275072          -1.044665          -1.655569         -35.822840
hessian_block                2       4          -0.213764          -0.010553          -1.477342          -0.281442           0.047051          -0.624614          -1.612050           1.622008          71.531302
hessian_block                2       5          -0.417451          -0.090388          -1.683483           0.281940           0.022360           1.940351          -0.961142           1.711762         -52.155147
hessian_block                2       6           0.044990           0.083414          -0.048119          -0.155306          -0.316405          -3.810381          -0.640308          -1.008016         -68.575482
hessian_block                3       3           0.868635          -0.044764          -3.968293          -0.044764           1.404929          -3.057043          -3.968293          -3.057043         259.287370
hessian_block                3       4          -0.001106          -0.125942           0.458536           0.185857          -0.624988          -3.357175           1.431707          -2.668478         -46.049443
hessian_block                3       5          -0.173287          -0.137980           4.955586          -0.278978          -0.193166           6.374890           4.670118           5.186837        -116.318089
hessian_block                3       6           0.036017          -0.012191          -2.084477          -0.058161          -0.261600           2.640087           1.597812           0.333255         -45.809955
hessian_block                4       4           1.200532           0.239908          -4.821998           0.239908           1.400502           4.499759          -4.821998           4.499759         211.233668
hessian_block                4       5           0.018276           0.155896           0.832036          -0.048449          -0.548801          -2.136627           0.185579          -2.390445         -43.887949
hessian_block                4       6          -0.368934          -0.137068           2.390938           0.010291           0.051781          -0.408259           2.681689           1.410717         -49.766944
hessian_block                5       5           0.950595          -0.048539          -4.055099          -0.048539           1.160012          -4.696405          -4.055099          -4.696405         264.205815
hessian_block                5       6          -0.133864           0.005743           1.859867           0.032601           0.066973          -1.909147          -1.958790          -3.335557          82.844001
hessian_block                6       6           0.910726          -0.034561           3.474382          -0.034561           1.087303          -3.473449           3.474382          -3.473449         277.326460
hessian_block_lv             1       1          18.051737           9.226354          -0.473693           9.226354          10.356362          -0.061196          -0.473693          -0.061196           0.071394
hessian_block_lv_atom        1       1          -0.104362           0.182498          -0.004725          -0.518265           0.159097          -0.025987           9.214640           8.995378           0.722190
hessian_block_lv_atom        1       2          -0.187973          -0.208599          -0.018653           0.065614          -0.225688           0.005152          -4.638631          -5.915268          -0.549660
hessian_block_lv_atom        1       3           0.149281          -0.176812           0.006701          -0.827018          -0.202410          -0.060631           7.927095           7.298300           0.567979
hessian_block_lv_atom        1       4           0.106045           0.203330           0.015572           0.204647           0.121867           0.019884          -1.949024          -4.481514          -0.289423
hessian_block_lv_atom        1       5          -0.063410           0.206754          -0.003316           0.383692          -0.107836           0.013524          -5.894900          -3.771387          -0.299826
hessian_block_lv_atom        1       6           0.100419          -0.207170           0.004421           0.691331           0.254969           0.048058          -4.659180          -2.125510          -0.151259
