#=======================================================
# FHI-aims file: ./geometry.in
# Created using the Atomic Simulation Environment (ASE)
# Wed Nov 11 15:08:57 2020
#=======================================================
lattice_vector 2.5124282299999998 0.0000000000000000 0.0000000000000000 
lattice_vector -1.2562141099999999 2.1758266700000002 0.0000000000000000 
lattice_vector 0.0000000000000000 0.0000000000000000 100.0000000000000000 
atom_frac 0.3333333408832657 0.0000000000000000 0.5000000000000001 N
atom_frac 0.0000000000000000 0.3333333394612724 0.5000000000000001 B
