# 
# This is the geometry file that corresponds to the current relaxation step.
# If you do not want this file to be written, set the "write_restart_geometry" flag to .false.
#  aims_uuid : EFEF9FF8-8158-4FDB-AA17-E2A16B958CA9                                
# 
lattice_vector      3.78002353      0.00000000      0.00000000
lattice_vector     -1.89001177      3.27359641      0.00000000
lattice_vector      0.00000000      0.00000000      4.95516796
atom_frac      -0.00031784     -0.00032947     -0.00025562 Pt
atom_frac       0.33318394      0.66619722      0.25925405 Se
atom_frac       0.66633706      0.33333540      0.74020471 Se
# 
# What follows is the current estimated Hessian matrix constructed by the BFGS algorithm.
# This is NOT the true Hessian matrix of the system.
# If you do not want this information here, switch it off using the "hessian_to_restart_geometry" keyword.
# 
trust_radius             0.1000000015
hessian_block                1       1           9.061705          -0.167871           0.654242          -0.167871           7.150271          -0.452620           0.654242          -0.452620          24.308351
hessian_block                1       2          -3.462024          -0.323539          -0.479003          -0.067504          -2.427029           0.713668           0.277422           0.555935         -10.294739
hessian_block                1       3          -3.736598          -0.440131          -0.175239          -0.696167          -2.860158          -0.261048          -0.931664          -0.103315         -10.940602
hessian_block                2       2           5.353791          -1.336637           0.632749          -1.336637           5.677030          -1.309887           0.632749          -1.309887          15.462844
hessian_block                2       3          -0.028684           0.472599          -0.910172           0.728635          -1.386918           0.753953          -0.153746           0.596219          -2.095095
hessian_block                3       3           5.628365          -0.964010           1.085410          -0.964010           6.110159          -0.492905           1.085410          -0.492905          16.108707
hessian_block_lv             1       1          34.789567           5.815805           0.000000           5.815805           2.030068           0.000000           0.000000           0.000000           0.000000
hessian_block_lv_atom        1       1           0.539193           0.286361           0.000000           0.299027           0.180316           0.000000           0.408542           0.113447           0.000000
hessian_block_lv_atom        1       2           1.523016           0.213261           0.000000           2.256079           0.216234           0.000000           3.082109           2.568226           0.000000
hessian_block_lv_atom        1       3          -2.062209          -0.499621           0.000000          -2.555106          -0.396550           0.000000          -3.490651          -2.681673           0.000000
