# 
# This is the geometry file that corresponds to the current relaxation step.
# If you do not want this file to be written, set the "write_restart_geometry" flag to .false.
#  aims_uuid : 724F688C-8262-4828-A4FB-C528515BEAD0                                
# 
lattice_vector      3.77963042      0.00000000      0.00000000
lattice_vector     -1.88981521      3.27325596      0.00000000
lattice_vector      0.00000000      0.00000000      4.95758136
atom_frac      -0.00031322     -0.00032543     -0.00025847 Pt
atom_frac       0.33317472      0.66618597      0.25917962 Se
atom_frac       0.66633762      0.33333859      0.74027797 Se
# 
# What follows is the current estimated Hessian matrix constructed by the BFGS algorithm.
# This is NOT the true Hessian matrix of the system.
# If you do not want this information here, switch it off using the "hessian_to_restart_geometry" keyword.
# 
trust_radius             0.1000000015
hessian_block                1       1           8.989130          -0.199206           0.652670          -0.199206           7.142506          -0.460621           0.652670          -0.460621          24.261104
hessian_block                1       2          -3.445315          -0.319319          -0.461794          -0.039012          -2.414609           0.698715           0.269762           0.555975         -10.284248
hessian_block                1       3          -3.680732          -0.413016          -0.190876          -0.693324          -2.864814          -0.238094          -0.922432          -0.095354         -10.903845
hessian_block                2       2           5.322297          -1.334746           0.591684          -1.334746           5.656555          -1.244721           0.591684          -1.244721          15.446352
hessian_block                2       3          -0.013898           0.442216          -0.861446           0.722524          -1.378863           0.688745          -0.129889           0.546006          -2.089092
hessian_block                3       3           5.557713          -0.960742           1.052322          -0.960742           6.106761          -0.450652           1.052322          -0.450652          16.065948
hessian_block_lv             1       1          34.981810           5.847219           0.000000           5.847219           2.031287           0.000000           0.000000           0.000000           0.000000
hessian_block_lv_atom        1       1           0.552068           0.278715           0.000000           0.309811           0.175201           0.000000           0.385831           0.110404           0.000000
hessian_block_lv_atom        1       2           1.503248           0.209420           0.000000           2.280807           0.230181           0.000000           3.147099           2.585858           0.000000
hessian_block_lv_atom        1       3          -2.055316          -0.488135           0.000000          -2.590619          -0.405381           0.000000          -3.532930          -2.696262           0.000000
