# 
# This is the geometry file that corresponds to the current relaxation step.
# If you do not want this file to be written, set the "write_restart_geometry" flag to .false.
#  aims_uuid : B22FC406-60BF-40AE-A078-6269110B6688                                
# 
lattice_vector      3.77979885      0.00000000      0.00000000
lattice_vector     -1.88989943      3.27340183      0.00000000
lattice_vector      0.00000000      0.00000000      4.95684857
atom_frac      -0.00030992     -0.00032692     -0.00025457 Pt
atom_frac       0.33319849      0.66619857      0.25919145 Se
atom_frac       0.66631391      0.33333083      0.74026559 Se
# 
# What follows is the current estimated Hessian matrix constructed by the BFGS algorithm.
# This is NOT the true Hessian matrix of the system.
# If you do not want this information here, switch it off using the "hessian_to_restart_geometry" keyword.
# 
trust_radius             0.1000000015
hessian_block                1       1           9.051437          -0.175673           0.664441          -0.175673           7.144932          -0.444894           0.664441          -0.444894          24.268953
hessian_block                1       2          -3.475425          -0.334426          -0.497815          -0.059177          -2.417939           0.718758           0.221049           0.519384         -10.260251
hessian_block                1       3          -3.712929          -0.421443          -0.166627          -0.696692          -2.863911          -0.273864          -0.885490          -0.074490         -10.935691
hessian_block                2       2           5.349969          -1.326248           0.677722          -1.326248           5.640450          -1.328891           0.677722          -1.328891          15.267458
hessian_block                2       3          -0.011461           0.453883          -0.898771           0.729132          -1.359428           0.809507          -0.179907           0.610133          -1.934196
hessian_block                3       3           5.587473          -0.963982           1.065397          -0.963982           6.086422          -0.535643           1.065397          -0.535643          15.942898
hessian_block_lv             1       1          35.014359           5.748615           0.000000           5.748615           2.001381           0.000000           0.000000           0.000000           0.000000
hessian_block_lv_atom        1       1           0.502213           0.258234           0.000000           0.271543           0.164085           0.000000           0.420589           0.117537           0.000000
hessian_block_lv_atom        1       2           1.531836           0.222725           0.000000           2.187939           0.189657           0.000000           2.974551           2.532839           0.000000
hessian_block_lv_atom        1       3          -2.034049          -0.480959           0.000000          -2.459483          -0.353742           0.000000          -3.395141          -2.650376           0.000000
