#===============================================================================
# FHI-aims file: ./control.in
# Created using the Atomic Simulation Environment (ASE)
# Tue Nov 10 17:29:52 2020
#===============================================================================
xc                                 pbe
include_spin_orbit
check_stacksize .false.
# Common choices of dispersion methods:
# 	 vdw_correction_hirshfeld
# 	 many_body_dispersion
 	 many_body_dispersion_nl 	 beta=0.81
spin                               none
k_grid                             9 9 9
relativistic                       atomic_zora scalar
### SCF settings 
adjust_scf 	 always 	 3 
# frozen_core_scf 	 .true. 
# charge_mix_param  0.05
# occupation_type 	 gaussian 	 0.01 
# sc_accuracy_eev   1E-3 	 	 # sum of eigenvalues convergence
# sc_accuracy_etot  1E-6 	 	 # total energy convergence
# sc_accuracy_rho   1E-3 	 	 # electron density convergence
# elsi_restart 	 read_and_write 	 1000
### band structure section 
## Brillouin Zone section Nr. 1
output band 0.000000 0.000000 0.000000 	 0.500000 0.000000 0.500000 	 31 	 G X
output band 0.500000 0.000000 0.500000 	 0.500000 0.250000 0.750000 	 31 	 X W
output band 0.500000 0.250000 0.750000 	 0.375000 0.375000 0.750000 	 31 	 W K
output band 0.375000 0.375000 0.750000 	 0.000000 0.000000 0.000000 	 31 	 K G
output band 0.000000 0.000000 0.000000 	 0.500000 0.500000 0.500000 	 31 	 G L
output band 0.500000 0.500000 0.500000 	 0.625000 0.250000 0.625000 	 31 	 L U
output band 0.625000 0.250000 0.625000 	 0.500000 0.250000 0.750000 	 31 	 U W
output band 0.500000 0.250000 0.750000 	 0.500000 0.500000 0.500000 	 31 	 W L
output band 0.500000 0.500000 0.500000 	 0.375000 0.375000 0.750000 	 31 	 L K
## Brillouin Zone section Nr. 2
output band 0.625000 0.250000 0.625000 	 0.500000 0.000000 0.500000 	 31 	 U X
### band structure section 
## Brillouin Zone section Nr. 1
output band_mulliken 0.000000 0.000000 0.000000 	 0.500000 0.000000 0.500000 	 31 	 G X
output band_mulliken 0.500000 0.000000 0.500000 	 0.500000 0.250000 0.750000 	 31 	 X W
output band_mulliken 0.500000 0.250000 0.750000 	 0.375000 0.375000 0.750000 	 31 	 W K
output band_mulliken 0.375000 0.375000 0.750000 	 0.000000 0.000000 0.000000 	 31 	 K G
output band_mulliken 0.000000 0.000000 0.000000 	 0.500000 0.500000 0.500000 	 31 	 G L
output band_mulliken 0.500000 0.500000 0.500000 	 0.625000 0.250000 0.625000 	 31 	 L U
output band_mulliken 0.625000 0.250000 0.625000 	 0.500000 0.250000 0.750000 	 31 	 U W
output band_mulliken 0.500000 0.250000 0.750000 	 0.500000 0.500000 0.500000 	 31 	 W L
output band_mulliken 0.500000 0.500000 0.500000 	 0.375000 0.375000 0.750000 	 31 	 L K
## Brillouin Zone section Nr. 2
output band_mulliken 0.625000 0.250000 0.625000 	 0.500000 0.000000 0.500000 	 31 	 U X
### DOS section 
output atom_proj_dos  -10 0 300 0.05       # Estart Eend n_points broadening
output species_proj_dos  -10 0 300 0.05       # Estart Eend n_points broadening
output dos  -10 0 300 0.05       # Estart Eend n_points broadening
output atom_proj_dos_tetrahedron  -10 0 300 0.05       # Estart Eend n_points broadening
output species_proj_dos_tetrahedron  -10 0 300 0.05       # Estart Eend n_points broadening
output dos_tetrahedron  -10 0 300 0.05       # Estart Eend n_points broadening
#===============================================================================

################################################################################
#
#  FHI-aims code project
#  VB, Fritz-Haber Institut, 2009
#
#  Suggested "light" defaults for Si atom (to be pasted into control.in file)
#  Be sure to double-check any results obtained with these settings for post-processing,
#  e.g., with the "tight" defaults and larger basis sets.
#
################################################################################
  species        Si
#     global species definitions
    nucleus             14
    mass                28.0855
#
    l_hartree           4
#
    cut_pot             3.5          1.5  1.0
    basis_dep_cutoff    1e-4
#
    radial_base         42 5.0
    radial_multiplier   1
    angular_grids       specified
      division   0.5866   50
      division   0.9616  110
      division   1.2249  194
      division   1.3795  302
#      division   1.4810  434
#      division   1.5529  590
#      division   1.6284  770
#      division   1.7077  974
#      division   2.4068 1202
#      outer_grid   974
      outer_grid 302
################################################################################
#
#  Definition of "minimal" basis
#
################################################################################
#     valence basis states
    valence      3  s   2.
    valence      3  p   2.
#     ion occupancy
    ion_occ      3  s   1.
    ion_occ      3  p   1.
################################################################################
#
#  Suggested additional basis functions. For production calculations, 
#  uncomment them one after another (the most important basis functions are
#  listed first).
#
#  Constructed for dimers: 1.75 A, 2.0 A, 2.25 A, 2.75 A, 3.75 A
#
################################################################################
#  "First tier" - improvements: -571.96 meV to -37.03 meV
     hydro 3 d 4.2
     hydro 2 p 1.4
     hydro 4 f 6.2
     ionic 3 s auto
#  "Second tier" - improvements: -16.76 meV to -3.03 meV
#     hydro 3 d 9
#     hydro 5 g 9.4
#     hydro 4 p 4
#     hydro 1 s 0.65
#  "Third tier" - improvements: -3.89 meV to -0.60 meV
#     ionic 3 d auto
#     hydro 3 s 2.6
#     hydro 4 f 8.4
#     hydro 3 d 3.4
#     hydro 3 p 7.8
#  "Fourth tier" - improvements: -0.33 meV to -0.11 meV
#     hydro 2 p 1.6
#     hydro 5 g 10.8
#     hydro 5 f 11.2
#     hydro 3 d 1
#     hydro 4 s 4.5
#  Further basis functions that fell out of the optimization - noise
#  level... < -0.08 meV
#     hydro 4 d 6.6
#     hydro 5 g 16.4
#     hydro 4 d 9
