# 
# This is the geometry file that corresponds to the current relaxation step.
# If you do not want this file to be written, set the "write_restart_geometry" flag to .false.
#  aims_uuid : 54A88AC6-E568-42A2-A03D-41D94C69E287                                
# 
lattice_vector      3.71994298      0.00000000      0.00000000
lattice_vector     -1.85997149      3.22156512      0.00000000
lattice_vector      0.00000000      0.00000000    101.64787410
atom_frac       0.00061242      0.66721292      0.50131265 Se
atom_frac       0.33413538      0.33417536      0.47528974 Se
atom_frac       0.66736630      0.00072582      0.48830339 Pt
# 
# What follows is the current estimated Hessian matrix constructed by the BFGS algorithm.
# This is NOT the true Hessian matrix of the system.
# If you do not want this information here, switch it off using the "hessian_to_restart_geometry" keyword.
# 
trust_radius             0.0493026794
hessian_block                1       1           1.140247          -0.702775          -6.483283          -0.702775           1.010447           3.228110          -6.483283           3.228110        1111.235316
hessian_block                1       2           0.028524           0.100849           2.531949           0.073941           0.066375          -0.511603          -1.408485           1.656920         -10.726685
hessian_block                1       3          -0.924764           0.479922           3.951334           0.506830          -0.832815          -2.716507           7.891769          -4.885030        -921.355693
hessian_block                2       2           1.070304          -0.607361           1.125078          -0.607361           1.038261          -2.077191           1.125078          -2.077191         941.414214
hessian_block                2       3          -0.854821           0.411417           0.283407           0.384509          -0.860630           0.420271          -3.657027           2.588794        -751.534592
hessian_block                3       3           2.023592          -1.013343          -4.234742          -1.013343           1.937452           2.296236          -4.234742           2.296236        1852.043222
hessian_block_lv             1       1          18.404744           0.102907           0.000000           0.102907           0.004546           0.000000           0.000000           0.000000           0.000000
hessian_block_lv_atom        1       1          -0.590545           0.007153           0.000000           0.398711          -0.008233           0.000000          76.518635           0.921325           0.000000
hessian_block_lv_atom        1       2           0.051180          -0.001116           0.000000           0.058516           0.004685           0.000000         -52.463924          -1.422403           0.000000
hessian_block_lv_atom        1       3           0.539365          -0.006038           0.000000          -0.457226           0.003548           0.000000         -24.054711           0.501078           0.000000
