# 
# This is the geometry file that corresponds to the current relaxation step.
# If you do not want this file to be written, set the "write_restart_geometry" flag to .false.
#  aims_uuid : 9B2961AF-7A27-408C-AADB-3DDB802D4099                                
# 
lattice_vector      3.28784762      0.00000000      0.00000000
lattice_vector     -1.64392381      2.84735956      0.00000000
lattice_vector      0.00000000      0.00000000    102.79531503
atom_frac       0.00019651      0.00039000      0.50060274 Se
atom_frac       0.33359897      0.66715164      0.48417679 W
atom_frac       0.00014667      0.00034266      0.46775125 Se
# 
# What follows is the current estimated Hessian matrix constructed by the BFGS algorithm.
# This is NOT the true Hessian matrix of the system.
# If you do not want this information here, switch it off using the "hessian_to_restart_geometry" keyword.
# 
trust_radius             0.0250000004
hessian_block                1       1           1.294585          -0.386983         -12.337080          -0.386983           1.022092          -8.415866         -12.337080          -8.415866        2442.314009
hessian_block                1       2          -1.643814           0.403353          28.189658           0.490487          -1.255275           4.832181           3.795885           5.439155       -1965.800751
hessian_block                1       3           0.569734          -0.126622         -15.852578          -0.213757           0.453688           3.583685           8.541195           2.976711        -257.137354
hessian_block                2       2           3.652131          -1.019963          -6.391262          -1.019963           2.693139          -0.545428          -6.391262          -0.545428        3654.358855
hessian_block                2       3          -1.787811           0.419222           2.595376           0.506357          -1.217358          -4.893727         -21.798396          -4.286752       -1469.182200
hessian_block                3       3           1.438583          -0.402853          13.257201          -0.402853           0.984176           1.310042          13.257201           1.310042        1945.695457
hessian_block_lv             1       1          48.394542           0.603574           0.000000           0.603574           0.016881           0.000000           0.000000           0.000000           0.000000
hessian_block_lv_atom        1       1          -3.344710          -0.057266           0.000000          -0.477213          -0.017260           0.000000         152.452716           4.978432           0.000000
hessian_block_lv_atom        1       2           7.686207           0.127484           0.000000          -0.326181           0.011330           0.000000         -60.592033          -1.255697           0.000000
hessian_block_lv_atom        1       3          -4.341497          -0.070217           0.000000           0.803394           0.005930           0.000000         -91.860683          -3.722736           0.000000
