# 
# This is the geometry file that corresponds to the current relaxation step.
# If you do not want this file to be written, set the "write_restart_geometry" flag to .false.
#  aims_uuid : 130DAF28-85C2-48EE-AAA2-C6B7BEA5E2C8                                
# 
lattice_vector      5.69527720      0.00000000      0.00000000
lattice_vector      0.00000000      5.89259005      0.00000000
lattice_vector      0.00000000      0.00000000    101.32636115
atom_frac       0.71682532     -0.00269786      0.49985657 Se
atom_frac       0.60860191      0.61639995      0.49231391 Pd
atom_frac       0.00043217      0.49724955      0.49985569 Se
atom_frac       0.10856308      0.11644510      0.49231357 Pd
atom_frac       0.21688031      0.73551692      0.48478191 Se
atom_frac       0.50037592      0.23556941      0.48478274 Se
# 
# What follows is the current estimated Hessian matrix constructed by the BFGS algorithm.
# This is NOT the true Hessian matrix of the system.
# If you do not want this information here, switch it off using the "hessian_to_restart_geometry" keyword.
# 
trust_radius             0.1120715509
hessian_block                1       1           0.848330           0.003865           3.349106           0.003865           1.210708          -2.846645           3.349106          -2.846645         268.390067
hessian_block                1       2           0.005242          -0.150919          -0.726278          -0.167036          -0.605435          -4.373602           0.058406          -3.454738         -52.343624
hessian_block                1       3          -0.062655           0.029867          -1.898439           0.035091           0.250305          -2.049874           1.687985          -0.934334          75.892815
hessian_block                1       4          -0.346366          -0.065002           2.950568          -0.163932          -0.022570           0.446349           1.785742          -0.909053         -51.992095
hessian_block                1       5           0.044941           0.088314           1.921060           0.088354          -0.203467           1.863896          -1.710629           2.086101         -43.732087
hessian_block                1       6          -0.200491           0.093875          -5.596018           0.203657          -0.325570           6.959876          -5.170610           6.058669        -105.148268
hessian_block                2       2           1.251591           0.019593           5.006028           0.019593           1.422868           3.711667           5.006028           3.711667         228.565425
hessian_block                2       3          -0.380713           0.166523          -1.859099           0.289485          -0.266888           2.289242          -1.031726          -1.663846         -35.614503
hessian_block                2       4          -0.213463          -0.014413          -1.446633          -0.283041           0.045548          -0.626739          -1.616211           1.642658          71.331182
hessian_block                2       5          -0.417633          -0.088375          -1.696386           0.281872           0.024056           1.926062          -0.974768           1.709134         -52.254601
hessian_block                2       6           0.043977           0.083707          -0.062316          -0.156989          -0.316178          -3.845495          -0.657045          -1.026011         -68.617072
hessian_block                3       3           0.868663          -0.048559          -3.974313          -0.048559           1.406550          -3.033866          -3.974313          -3.033866         259.461400
hessian_block                3       4           0.001312          -0.122379           0.451573           0.187975          -0.625983          -3.373185           1.416671          -2.677485         -46.059770
hessian_block                3       5          -0.174372          -0.139391           4.961088          -0.279877          -0.194720           6.378615           4.686699           5.160522        -116.531877
hessian_block                3       6           0.036766          -0.014247          -2.094606          -0.055930          -0.265293           2.626615           1.628481           0.311461         -46.081258
hessian_block                4       4           1.195424           0.238163          -4.797356           0.238163           1.401470           4.513469          -4.797356           4.513469         211.066816
hessian_block                4       5           0.020667           0.156725           0.820975          -0.046388          -0.548041          -2.150634           0.182903          -2.378962         -43.745986
hessian_block                4       6          -0.368573          -0.135891           2.390179           0.010018           0.053547          -0.418956           2.658944           1.419067         -49.533340
hessian_block                5       5           0.949605          -0.049539          -4.055761          -0.049539           1.159074          -4.694047          -4.055761          -4.694047         264.332366
hessian_block                5       6          -0.134207           0.005578           1.871555           0.032266           0.067069          -1.882748          -1.950976          -3.323893          82.998992
hessian_block                6       6           0.911529          -0.033023           3.491206          -0.033023           1.090396          -3.439293           3.491206          -3.439293         277.447754
hessian_block_lv             1       1          18.086374           9.249993          -0.471781           9.249993          10.372237          -0.058552          -0.471781          -0.058552           0.071577
hessian_block_lv_atom        1       1          -0.106733           0.178984          -0.005067          -0.521126           0.155059          -0.026290           9.147656           8.895727           0.713535
hessian_block_lv_atom        1       2          -0.190134          -0.210968          -0.018947           0.065658          -0.223777           0.005116          -4.635116          -5.862522          -0.547925
hessian_block_lv_atom        1       3           0.154265          -0.169392           0.007406          -0.829291          -0.204202          -0.060851           7.859953           7.208501           0.559527
hessian_block_lv_atom        1       4           0.101860           0.197064           0.015012           0.205751           0.123123           0.020070          -1.881588          -4.370951          -0.280775
hessian_block_lv_atom        1       5          -0.061436           0.209575          -0.003053           0.385191          -0.105944           0.013659          -5.856987          -3.748281          -0.295679
hessian_block_lv_atom        1       6           0.102178          -0.205263           0.004649           0.693816           0.255741           0.048296          -4.633918          -2.122473          -0.148682
