#=======================================================
# FHI-aims file: geometry.in
# Created using the Atomic Simulation Environment (ASE)
# Thu Apr  2 11:24:44 2020
#=======================================================
lattice_vector 5.7178690300000001 0.0000000000000000 0.0000000000000000 
lattice_vector 0.0000000000000000 5.8640909600000004 0.0000000000000000 
lattice_vector 0.0000000000000000 0.0000000000000000 101.4997797300000002 
atom_frac 0.7176552887920905 0.0000000000000000 0.5000000000198302 Se
atom_frac 0.6088276439588195 0.6166330390618634 0.4926119064496296 Pd
atom_frac 0.0000000000000000 0.4999999999999999 0.5000000000198302 Se
atom_frac 0.1088276430843677 0.1166330390618633 0.4926119064496296 Pd
atom_frac 0.2176552879176388 0.7332660781237268 0.4852238129779513 Se
atom_frac 0.4999999991255482 0.2332660798290208 0.4852238129779513 Se
symmetry_n_params 21 3 18
symmetry_params a1 b2 c3 x0 x1 x2 x3 x4 x5 x6 x7 x8 x9 x10 x11 x12 x13 x14 x15 x16 x17
symmetry_lv a1 , 0 , 0 
symmetry_lv 0 , b2 , 0 
symmetry_lv 0 , 0 , c3
symmetry_frac x0 , x1 , x2
symmetry_frac x3 , x4 , x5
symmetry_frac x6 , x7 , x8
symmetry_frac x9 , x10 , x11
symmetry_frac x12 , x13 , x14
symmetry_frac x15 , x16 , x17
