# 
# This is the geometry file that corresponds to the current relaxation step.
# If you do not want this file to be written, set the "write_restart_geometry" flag to .false.
#  aims_uuid : E5B72029-501D-4C25-A260-BA29675685DD                                
# 
lattice_vector      3.28815270      0.00000000      0.00000000
lattice_vector     -1.64407635      2.84762377      0.00000000
lattice_vector      0.00000000      0.00000000    102.35157309
atom_frac       0.00007899      0.00013885      0.50024495 Se
atom_frac       0.33341241      0.66687162      0.48374960 W
atom_frac       0.00015580      0.00028394      0.46725330 Se
# 
# What follows is the current estimated Hessian matrix constructed by the BFGS algorithm.
# This is NOT the true Hessian matrix of the system.
# If you do not want this information here, switch it off using the "hessian_to_restart_geometry" keyword.
# 
trust_radius             0.0841195819
hessian_block                1       1           1.278539          -0.218116         -21.418055          -0.218116           1.501658         -30.216485         -21.418055         -30.216485        4008.621910
hessian_block                1       2          -1.216723           0.090935          28.990372          -0.116656          -2.138913          72.562148          11.726305           8.335435       -2282.541151
hessian_block                1       3           0.158689           0.016928          -7.572316           0.224519           0.857761         -42.345663           9.691750          21.881050       -1506.704855
hessian_block                2       2           2.509749          -0.281682         -18.448068          -0.281682           4.837566         -25.756374         -18.448068         -25.756374        3806.248435
hessian_block                2       3          -1.072521           0.288085           6.721763           0.080494          -2.478147          17.420939         -10.542303         -46.805774       -1304.331380
hessian_block                3       3           1.134338          -0.415266           0.850553          -0.415266           1.840892          24.924725           0.850553          24.924725        3030.412139
hessian_block_lv             1       1          25.707823           0.400826           0.000000           0.400826           0.030970           0.000000           0.000000           0.000000           0.000000
hessian_block_lv_atom        1       1           0.011231          -0.057547           0.000000          -0.860092          -0.097323           0.000000          97.290858           9.657040           0.000000
hessian_block_lv_atom        1       2          -0.477513           0.070732           0.000000           1.383110           0.220730           0.000000          34.015146          -1.733648           0.000000
hessian_block_lv_atom        1       3           0.466282          -0.013185           0.000000          -0.523018          -0.123407           0.000000        -131.306004          -7.923393           0.000000
