#=======================================================
# FHI-aims file: geometry.in
# Created using the Atomic Simulation Environment (ASE)
# Thu Apr  2 11:31:19 2020
#=======================================================
lattice_vector 3.2799999999999998 0.0000000000000000 0.0000000000000000 
lattice_vector -1.6399999999999999 2.8405633199999998 0.0000000000000000 
lattice_vector 0.0000000000000000 0.0000000000000000 103.4566499999999962 
atom_frac 0.0000000000000000 0.0000000000000000 0.5000000000000001 Se
atom_frac 0.3333333333333330 0.6666666666666667 0.4832942106669799 W
atom_frac 0.0000000000000000 0.0000000000000000 0.4665884213339598 Se
symmetry_n_params 11 2 9
symmetry_params a1 c3 x0 x1 x2 x3 x4 x5 x6 x7 x8
symmetry_lv a1 , 0 , 0 
symmetry_lv -a1/2 , sqrt(3.0)*a1/2 , 0 
symmetry_lv 0 , 0 , c3
symmetry_frac x0 , x1 , x2
symmetry_frac x3 , x4 , x5
symmetry_frac x6 , x7 , x8
