#=======================================================
# FHI-aims file: /mnt/c/Users/rkempt/Dropbox/Repositories/aimstools/tests/vibes_relax/relaxation/geometry.in.next_step
# Created using the Atomic Simulation Environment (ASE)
# Thu Dec  3 13:14:09 2020

# Additional information:
#  Relaxed with BFGS, fmax=10.000 meV/AA
#  nsteps = 3
#  residual force  = 0.198791 meV/AA
#  residual stress = 0.584834 meV/AA
#=======================================================
lattice_vector 0.0000199852700000 2.7167850593559999 2.7167850594199998 
lattice_vector 2.7167849697860000 0.0000199855150000 2.7167850591749998 
lattice_vector 2.7167849698480002 2.7167850591730001 0.0000199854530000 
atom_frac 0.0000001638030000 0.0000001637960000 0.0000001638480000 Si
atom_frac 0.2499998361970000 0.2499998362040000 0.2499998361530001 Si
