# 
# This is the geometry file that corresponds to the current relaxation step.
# If you do not want this file to be written, set the "write_restart_geometry" flag to .false.
#  aims_uuid : 79DB75D7-BC63-44D9-A34E-F82E54DEA7B1                                
# 
lattice_vector      3.28761078      0.00000000      0.00000000
lattice_vector     -1.64380539      2.84715446      0.00000000
lattice_vector      0.00000000      0.00000000    102.03318144
atom_frac       0.00015404      0.00039658      0.50085866 Se
atom_frac       0.33359704      0.66719463      0.48431166 W
atom_frac       0.00028368      0.00047832      0.46776328 Se
# 
# What follows is the current estimated Hessian matrix constructed by the BFGS algorithm.
# This is NOT the true Hessian matrix of the system.
# If you do not want this information here, switch it off using the "hessian_to_restart_geometry" keyword.
# 
trust_radius             0.0233052696
hessian_block                1       1           1.247585          -0.466892          -4.038425          -0.466892           1.122076           9.934034          -4.038425           9.934034        2062.972934
hessian_block                1       2          -1.220396           0.586966           8.887127           0.505984          -1.215971         -10.923022          13.517862         -14.959194       -1953.331409
hessian_block                1       3           0.193317          -0.230327          -4.848701          -0.149345           0.314400           0.988988          -9.479437           5.025160         109.734378
hessian_block                2       2           2.615690          -1.281736         -23.401599          -1.281736           2.648872          11.547338         -23.401599          11.547338        4400.472228
hessian_block                2       3          -1.174789           0.665499           9.883737           0.584517          -1.212395           3.411856          14.514473          -0.624316       -2227.764915
hessian_block                3       3           1.201977          -0.545425          -5.035036          -0.545425           1.118501          -4.400844          -5.035036          -4.400844        2337.406440
hessian_block_lv             1       1          43.932957           0.297414           0.000000           0.297414           0.010155           0.000000           0.000000           0.000000           0.000000
hessian_block_lv_atom        1       1           0.992655           0.003836           0.000000           1.037123           0.005273           0.000000         113.159888           3.048376           0.000000
hessian_block_lv_atom        1       2          -0.399491          -0.004076           0.000000          -2.643452          -0.013746           0.000000         -21.710114           0.380025           0.000000
hessian_block_lv_atom        1       3          -0.593164           0.000240           0.000000           1.606328           0.008472           0.000000         -91.449774          -3.428401           0.000000
