#=======================================================
# FHI-aims file: geometry.in
# Created using the Atomic Simulation Environment (ASE)
# Thu Apr  2 11:27:10 2020
#=======================================================
lattice_vector 5.7178690300000001 0.0000000000000000 0.0000000000000000 
lattice_vector 0.0000000000000000 5.8640909600000004 0.0000000000000000 
lattice_vector 0.0000000000000000 0.0000000000000000 8.0475211899999994 
atom_frac 0.4999999991255484 0.0000000000000000 0.0000000000000000 Pd
atom_frac 0.0000000000000000 0.0000000000000000 0.4999999993786907 Pd
atom_frac 0.0000000000000000 0.5000000000000000 0.0000000000000000 Pd
atom_frac 0.4999999991255484 0.5000000000000000 0.4999999993786907 Pd
atom_frac 0.6088276439588195 0.1166330390618634 0.4068172860567517 Se
atom_frac 0.8911723551667289 0.8833669609381366 0.9068172854354423 Se
atom_frac 0.1088276448332710 0.3833669609381367 0.5931827139432484 Se
atom_frac 0.3911723560411806 0.6166330407671575 0.0931827145645577 Se
atom_frac 0.3911723560411806 0.8833669609381366 0.5931827139432484 Se
atom_frac 0.1088276448332710 0.1166330390618634 0.0931827145645577 Se
atom_frac 0.8911723551667289 0.6166330407671575 0.4068172860567517 Se
atom_frac 0.6088276439588195 0.3833669609381367 0.9068172854354423 Se
symmetry_n_params 39 3 36
symmetry_params a1 b2 c3 x0 x1 x2 x3 x4 x5 x6 x7 x8 x9 x10 x11 x12 x13 x14 x15 x16 x17 x18 x19 x20 x21 x22 x23 x24 x25 x26 x27 x28 x29 x30 x31 x32 x33 x34 x35
symmetry_lv a1 , 0 , 0 
symmetry_lv 0 , b2 , 0 
symmetry_lv 0 , 0 , c3
symmetry_frac x0 , x1 , x2
symmetry_frac x3 , x4 , x5
symmetry_frac x6 , x7 , x8
symmetry_frac x9 , x10 , x11
symmetry_frac x12 , x13 , x14
symmetry_frac x15 , x16 , x17
symmetry_frac x18 , x19 , x20
symmetry_frac x21 , x22 , x23
symmetry_frac x24 , x25 , x26
symmetry_frac x27 , x28 , x29
symmetry_frac x30 , x31 , x32
symmetry_frac x33 , x34 , x35
