# 
# This is the geometry file that corresponds to the current relaxation step.
# If you do not want this file to be written, set the "write_restart_geometry" flag to .false.
#  aims_uuid : F4848E7E-5A5E-4E75-AF42-DC59B79CE9DE                                
# 
lattice_vector      5.85676839      0.00000000      0.00000000
lattice_vector      0.00000000      5.96041904      0.00000000
lattice_vector      0.00000000      0.00000000      7.42192980
atom_frac       0.50204388      0.00211336      0.00195271 Pd
atom_frac       0.00211227      0.00214569      0.50230426 Pd
atom_frac       0.00219679      0.50206167      0.00201259 Pd
atom_frac       0.50213549      0.50209534      0.50224322 Pd
atom_frac       0.61382629      0.12001759      0.40395435 Se
atom_frac       0.89032985      0.88422835      0.90372022 Se
atom_frac       0.11388132      0.38426190      0.60038323 Se
atom_frac       0.39033100      0.61993859      0.10031105 Se
atom_frac       0.39037972      0.88421047      0.60038608 Se
atom_frac       0.11393221      0.12001448      0.10031997 Se
atom_frac       0.89030150      0.61992477      0.40395746 Se
atom_frac       0.61380475      0.38426287      0.90372994 Se
# 
# What follows is the current estimated Hessian matrix constructed by the BFGS algorithm.
# This is NOT the true Hessian matrix of the system.
# If you do not want this information here, switch it off using the "hessian_to_restart_geometry" keyword.
# 
trust_radius             0.0122107920
hessian_block                1       1           5.967484           0.088189          -2.211567           0.088189           6.360449          -1.102248          -2.211567          -1.102248           4.748897
hessian_block                1       2          -0.010730           0.436805          -0.020554           0.316951           0.231221          -0.176815          -0.003612          -0.015512          -0.023504
hessian_block                1       3          -0.031934           0.518531          -0.024406          -0.023837          -0.111869           0.131062          -0.153934           0.123998          -0.025397
hessian_block                1       4           0.508044           0.240290          -0.120551           0.119719          -0.401677          -0.162725           0.068452          -0.023998           0.005383
hessian_block                1       5          -0.016364          -0.442090          -0.152135          -0.279401           0.203308           0.292862          -0.342115           0.251491           0.247307
hessian_block                1       6          -1.923646          -0.005834           0.673075           0.326584          -0.486270          -0.265198           1.056439          -0.273446          -0.480248
hessian_block                1       7          -0.350541           0.237202           0.235996          -0.006863           0.272437           0.075893           0.231615          -0.104911          -0.020693
hessian_block                1       8          -0.243543          -0.588223           0.373468          -0.294686          -1.946419           0.760248           0.151300           0.666931          -0.555506
hessian_block                1       9          -0.166830           0.024262           0.199154          -0.460127          -0.345360          -0.096088           0.118316          -0.283551          -0.030858
hessian_block                1      10          -2.151961           0.811313           1.027504           0.151639          -0.323606          -0.348529           0.918968          -0.318276          -0.537125
hessian_block                1      11           0.039392          -0.497477          -0.146249           0.313789           0.054839           0.069788          -0.027136           0.357813           0.214427
hessian_block                1      12          -0.053459          -0.822968           0.166266          -0.251958          -1.860028           0.821749           0.193275           0.721705          -0.440818
hessian_block                2       2           5.995731           0.232447           2.301453           0.232447           7.258028           1.880767           2.301453           1.880767           5.053330
hessian_block                2       3           0.826484           0.723114           0.428447          -0.379299          -0.479801          -0.317930           0.132515           0.005937           0.101661
hessian_block                2       4           0.222023           0.569747           0.189335          -0.506127           0.666626           0.344802           0.030979           0.529323           0.193056
hessian_block                2       5          -2.062200           0.071121          -0.989480           0.405264          -0.775483          -0.138152          -0.565840          -0.013921          -0.539148
hessian_block                2       6          -0.449873           0.262324           0.224717          -0.289291          -0.786756          -0.284101          -0.145460           0.107471          -0.004263
hessian_block                2       7          -0.087686          -0.710084          -0.378454          -0.388257          -1.447435          -0.654708          -0.480782          -1.611778          -0.889291
hessian_block                2       8          -0.276752          -0.383746          -0.259739           0.077006          -0.546590          -0.290574          -0.245785          -0.427562          -0.120417
hessian_block                2       9          -2.032306           0.447947          -0.937966           0.738568          -0.802956           0.261077          -1.311926          -0.415363          -0.800647
hessian_block                2      10           0.437373          -0.516878          -0.175902           0.230093           0.769256           0.592572           0.203583           0.355005           0.232852
hessian_block                2      11          -0.471443          -0.603277          -0.186736          -0.479846          -3.279429          -1.717637          -0.006510          -0.750066          -0.440577
hessian_block                2      12          -0.524713          -0.409665          -0.212064          -0.077361           0.840343           0.339395           0.108327           0.517001           0.338814
hessian_block                3       3           6.524606          -0.494195           2.353910          -0.494195           6.311563          -1.217651           2.353910          -1.217651           4.786674
hessian_block                3       4           0.359739          -0.234404          -0.043941          -0.326387           0.110775          -0.109247           0.148713          -0.185397           0.038743
hessian_block                3       5          -0.564471           0.135656          -0.266333          -0.279517           0.508297           0.155882           0.286441           0.069574           0.295519
hessian_block                3       6          -0.615953           0.288843          -0.435601          -0.007930          -1.818267           0.737288          -0.518123           0.695516          -0.585622
hessian_block                3       7           0.024322           0.129194           0.166171           0.302387          -0.166666           0.152534          -0.622055           0.223729          -0.285507
hessian_block                3       8          -2.206881          -0.278026          -0.850799          -0.725505          -0.260942          -0.495150          -1.229673          -0.075068          -0.666251
hessian_block                3       9          -0.292808           0.309553           0.124727           0.129612          -0.242149           0.062712          -0.807045           0.415899          -0.228767
hessian_block                3      10           0.338032           0.659361           0.099902           1.120215          -2.139168           1.106136           0.145171           0.755805          -0.381937
hessian_block                3      11          -0.354860           0.041869          -0.108941          -0.556125           0.286011          -0.270744           0.365816           0.050923           0.258448
hessian_block                3      12          -2.440363          -0.154714          -1.017678          -0.404200          -0.350758          -0.251695          -0.527199          -0.546463          -0.205697
hessian_block                4       4           5.935791           0.125840          -1.975678           0.125840           6.948946           1.571962          -1.975678           1.571962           4.924157
hessian_block                4       5          -0.444432           0.646384           0.193029           0.177959          -2.189056          -1.150116          -0.062876          -1.297735          -0.596054
hessian_block                4       6          -0.140926           0.561314           0.265499          -0.318906          -0.364568          -0.196730           0.145189          -0.068704           0.089927
hessian_block                4       7          -1.979896          -0.839948           0.709418          -0.301227          -0.198087           0.372206           0.813588          -0.135994          -0.657651
hessian_block                4       8          -0.321904          -0.051834          -0.086161           0.098086          -0.552848          -0.191364          -0.214445          -0.032709          -0.014187
hessian_block                4       9          -0.319455           0.676822           0.188631           0.125947          -2.368803          -1.061119           0.113376          -0.840464          -0.615651
hessian_block                4      10          -0.300780          -0.585851          -0.325718          -0.082273           0.671008           0.282797           0.210183           0.306215           0.101315
hessian_block                4      11          -1.846083          -0.094481           0.860259          -0.702004          -1.238151          -0.280841           0.843764           0.062658          -0.472614
hessian_block                4      12          -0.106211           0.274549          -0.077426           0.300946           0.562858           0.333277           0.102056           0.361943           0.105441
hessian_block                5       5           5.320740          -0.371509          -1.206733          -0.371509           6.106037          -0.987357          -1.206733          -0.987357           7.612066
hessian_block                5       6           0.167319          -0.398070          -0.358708           0.198715          -0.152776           0.298734           0.008582          -0.459739           0.254947
hessian_block                5       7          -0.391966           0.930427           0.042677          -0.944902           0.142588           0.324757           0.568096           0.559658          -1.053618
hessian_block                5       8           0.103134           0.083628           0.394844           0.538389          -0.027679          -0.519992           0.538498           0.475865          -0.826485
hessian_block                5       9          -1.355779          -0.406113           1.714035          -0.453046          -1.680632           2.157946           1.918998           2.274827          -3.447383
hessian_block                5      10          -0.074647           0.504010           0.533211           0.014585          -0.002913          -0.274802           0.195089          -0.110321          -0.612640
hessian_block                5      11           0.502276          -0.738903           0.080914           1.048022           0.075634          -0.170506          -0.648775          -0.143703           1.125816
hessian_block                5      12           0.382300           0.372223          -0.515847          -0.441324          -0.560301           0.161808          -0.158835          -0.769705           0.641539
hessian_block                6       6           5.889093           0.357676           1.826939           0.357676           5.703287           1.473101           1.826939           1.473101           7.894788
hessian_block                6       7           0.124399          -0.076756           0.052562           0.499528           0.018443           0.589354          -0.124908           0.193347          -0.244779
hessian_block                6       8           0.045746           0.380872           0.167497          -0.036897           0.280972           0.279141          -0.009141          -0.115383          -0.576805
hessian_block                6       9           0.190900           0.141877           0.081461           0.054235           0.715603          -0.014304          -0.018330           0.070206          -0.504830
hessian_block                6      10          -2.069816          -1.108050          -2.561619          -0.901511          -1.841374          -2.434248          -2.123179          -2.172043          -3.648765
hessian_block                6      11           0.104279           0.338037          -0.143166          -1.015592           0.568337          -0.164735          -0.390367           0.052818           0.268805
hessian_block                6      12           0.244389           0.057172           0.029700           0.333982          -0.189605           0.270593           0.470005           0.207960           0.638710
hessian_block                7       7           5.309526           0.654791           1.047853           0.654791           6.050902          -1.518938           1.047853          -1.518938           8.031079
hessian_block                7       8          -0.032185          -0.048492          -0.057604          -0.038412          -0.457877           1.028636           0.231524          -0.611650           1.131581
hessian_block                7       9           0.424368           0.626089          -0.271919          -0.503181          -0.488023          -0.325448           0.249861          -0.531988           1.519597
hessian_block                7      10           0.110155          -0.520070          -0.059831           0.073147          -0.158459          -0.598475          -0.452292          -0.690398           0.273174
hessian_block                7      11          -1.713234           0.349912          -1.684917           0.481853          -2.418546           3.057880          -1.476013           2.120208          -3.496959
hessian_block                7      12           0.128649          -0.222895           0.640861          -0.338232           0.497747          -0.767704          -0.429302           0.372726          -1.205069
hessian_block                8       8           4.861177          -0.026138          -0.869026          -0.026138           5.795109           1.465555          -0.869026           1.465555           7.186257
hessian_block                8       9           0.316066          -0.554863          -0.203540           0.064907           0.274517          -0.197522          -0.019795           0.658188           1.130102
hessian_block                8      10          -0.068891          -0.081699           0.148891          -0.566281          -0.540214           0.180053          -0.412342          -0.021448           0.536427
hessian_block                8      11           0.212144          -0.125802          -0.110347           0.346079           1.320184           0.801015           0.301541          -0.668205          -0.965141
hessian_block                8      12          -0.822203           1.170522           1.811745           1.067254          -1.691187          -2.129527           1.318117          -2.005036          -3.157712
hessian_block                9       9           5.061316          -0.575332          -0.834767          -0.575332           6.369030          -1.421837          -0.834767          -1.421837           7.879027
hessian_block                9      10          -0.124459           0.511522          -0.057338          -0.218593          -0.005619          -0.240376          -0.457899          -0.026835           0.426845
hessian_block                9      11          -0.211192           0.661725          -0.136258          -0.761561           0.606424           0.954525           0.408792           0.171013          -1.109786
hessian_block                9      12           0.076086          -0.294832           0.784908           0.289912          -0.385006          -0.640069          -0.010707           0.490406          -1.115783
hessian_block               10      10           5.817153           0.287182           1.471471           0.287182           6.530699           1.832800           1.471471           1.832800           7.660622
hessian_block               10      11          -0.049738          -0.013017           0.307369           0.630941          -1.299483           0.165474           0.266924          -0.289767          -0.469734
hessian_block               10      12          -0.296509          -0.095188          -0.006122          -0.591783          -0.013100          -0.075980          -0.367497           0.191840          -0.479169
hessian_block               11      11           5.310757           0.408912           0.879876           0.408912           7.944951          -1.449250           0.879876          -1.449250           7.492367
hessian_block               11      12           0.043611           0.285530          -0.517908           0.272500          -0.973749           0.485559           0.388193          -0.994968           0.696812
hessian_block               12      12           4.934333          -0.159736          -1.086431          -0.159736           5.769809           1.452593          -1.086431           1.452593           7.284799
hessian_block_lv             1       1          22.421714          -4.142429           4.698741          -4.142429          23.488573           2.216108           4.698741           2.216108           1.733544
hessian_block_lv_atom        1       1           0.231405           0.486472           0.127040          -0.282993          -0.505208          -0.105370           0.031601          -0.082410           0.099651
hessian_block_lv_atom        1       2          -0.526475          -0.870057          -0.186136          -0.060685          -0.501011          -0.138373          -0.174324          -0.572405          -0.240606
hessian_block_lv_atom        1       3          -0.807951          -1.201562          -0.320018           0.305154           0.584306           0.149235          -0.164090          -0.469813          -0.028496
hessian_block_lv_atom        1       4          -0.058629           0.074547           0.023234           0.500033           0.540357           0.116917           0.034083          -0.156007          -0.114136
hessian_block_lv_atom        1       5           0.417323           0.545495           0.388597           0.464499           0.284755           0.392217          -1.569191          -2.550888          -1.331122
hessian_block_lv_atom        1       6           0.123687          -0.200083          -0.321462          -0.167278           0.050081          -0.142823          -1.330528          -1.946198          -1.107487
hessian_block_lv_atom        1       7          -0.264217          -0.670628           0.162212          -0.919955          -1.073340          -0.503299           1.637420           2.742461           1.408593
hessian_block_lv_atom        1       8           0.286654           0.403087          -0.183229           0.263225           0.375891           0.325390           1.658483           2.397430           1.411699
hessian_block_lv_atom        1       9           0.104696           0.178676          -0.218622          -0.898685          -0.641605          -0.473822           1.772170           2.919265           1.445727
hessian_block_lv_atom        1      10          -0.341935          -0.066488           0.213838          -0.072801          -0.462582           0.018537           1.282694           2.258150           1.135587
hessian_block_lv_atom        1      11           0.328231           0.746752          -0.169573           0.929231           1.408640           0.618295          -1.455089          -2.353763          -1.276140
hessian_block_lv_atom        1      12           0.507208           0.573790           0.484118          -0.059747          -0.060285          -0.256907          -1.723229          -2.185822          -1.403270
symmetry_n_params 39 3 36
symmetry_params a1 b2 c3 x0 x1 x2 x3 x4 x5 x6 x7 x8 x9 x10 x11 x12 x13 x14 x15 x16 x17 x18 x19 x20 x21 x22 x23 x24 x25 x26 x27 x28 x29 x30 x31 x32 x33 x34 x35
symmetry_lv a1 , 0 , 0 
symmetry_lv 0 , b2 , 0 
symmetry_lv 0 , 0 , c3
symmetry_frac x0 , x1 , x2
symmetry_frac x3 , x4 , x5
symmetry_frac x6 , x7 , x8
symmetry_frac x9 , x10 , x11
symmetry_frac x12 , x13 , x14
symmetry_frac x15 , x16 , x17
symmetry_frac x18 , x19 , x20
symmetry_frac x21 , x22 , x23
symmetry_frac x24 , x25 , x26
symmetry_frac x27 , x28 , x29
symmetry_frac x30 , x31 , x32
symmetry_frac x33 , x34 , x35
