# 
# This is the geometry file that corresponds to the current relaxation step.
# If you do not want this file to be written, set the "write_restart_geometry" flag to .false.
#  aims_uuid : 63F47D6A-939A-4757-AE28-861419D4D802                                
# 
lattice_vector      5.83812937      0.00000000      0.00000000
lattice_vector      0.00000000      5.95035634      0.00000000
lattice_vector      0.00000000      0.00000000      7.51703480
atom_frac       0.50116141      0.00039875      0.00027027 Pd
atom_frac       0.00039731      0.00045424      0.50139007 Pd
atom_frac       0.00050109      0.50115561      0.00029586 Pd
atom_frac       0.50126766      0.50121205      0.50136529 Pd
atom_frac       0.61290386      0.11863026      0.40371985 Se
atom_frac       0.89032668      0.88377349      0.90439622 Se
atom_frac       0.11214854      0.38305338      0.59877682 Se
atom_frac       0.38943947      0.61942448      0.09788946 Se
atom_frac       0.38949961      0.88379038      0.59878206 Se
atom_frac       0.11213607      0.11869978      0.09791167 Se
atom_frac       0.89025280      0.61933830      0.40373030 Se
atom_frac       0.61291174      0.38301553      0.90441838 Se
# 
# What follows is the current estimated Hessian matrix constructed by the BFGS algorithm.
# This is NOT the true Hessian matrix of the system.
# If you do not want this information here, switch it off using the "hessian_to_restart_geometry" keyword.
# 
trust_radius             0.0122107920
hessian_block                1       1           6.484164          -1.283326          -2.712639          -1.283326           9.593950           0.141387          -2.712639           0.141387           5.293190
hessian_block                1       2          -1.346309           3.691371           1.297793          -0.820762           3.341161           1.098671          -0.706289           1.862584           0.689019
hessian_block                1       3          -1.914799           5.236216           1.864535           0.076538          -0.569937          -0.095622          -1.323189           3.047651           1.176153
hessian_block                1       4           0.522673           0.236162          -0.056181           0.463614          -1.016125          -0.365420           0.029130           0.182545           0.055390
hessian_block                1       5           0.759947          -2.523536          -1.013504          -2.021186           4.211540           1.790550           0.006709          -0.617646          -0.087470
hessian_block                1       6           0.493599          -5.504751          -1.486683           2.541769          -5.773323          -2.281075           5.064501          -9.920817          -4.200618
hessian_block                1       7          -1.375714           2.708437           1.130416           0.621226          -1.027404          -0.351619          -0.004812           0.187228           0.010752
hessian_block                1       8           0.611878          -2.708852          -0.507522           0.098930          -3.135159           0.265851          -1.244170           3.979800           0.741995
hessian_block                1       9          -0.090658          -0.070864           0.155624           1.073482          -4.043231          -1.523084          -0.282067           0.459493           0.203878
hessian_block                1      10          -4.701214           6.803985           3.317916          -2.003229           5.072877           1.745058          -1.850275           6.368076           2.036857
hessian_block                1      11           1.530395          -4.036460          -1.516807           0.670393          -1.418483          -0.634893           0.337558          -0.519439          -0.067149
hessian_block                1      12           0.591950          -2.548383          -0.472946           0.582550          -3.588840           0.210196           2.685543          -5.170864          -2.750133
hessian_block                2       2           9.228613           3.265266           4.055082           3.265266           9.743665           3.311288           4.055082           3.311288           5.910955
hessian_block                2       3           5.435876           4.923451           2.860426          -0.789367          -0.656133          -0.373972           3.034792           2.704348           1.639304
hessian_block                2       4           0.180251           0.548591           0.097784          -1.169473          -0.151637          -0.174862           0.204563           0.533505           0.233557
hessian_block                2       5          -4.078470          -1.645823          -1.953926           4.473690           3.289025           2.334676          -1.406567          -0.857902          -1.024168
hessian_block                2       6          -5.993865          -5.398167          -3.100036          -5.518862          -5.732367          -3.269065          -9.686013          -9.092395          -5.448767
hessian_block                2       7           2.409644           1.590926           1.067129          -1.729317          -2.984140          -1.625221          -0.099891          -0.900617          -0.410642
hessian_block                2       8          -2.280004          -2.327443          -1.318425          -1.064378          -1.359088          -0.759268           3.158772           2.987861           1.890631
hessian_block                2       9          -2.113252           0.254269          -1.031716          -3.047363          -4.384020          -1.906741          -0.513161           0.662527          -0.134749
hessian_block                2      10           6.377228           5.345274           3.305239           5.437799           5.486467           3.377989           6.751069           6.656339           3.953658
hessian_block                2      11          -4.056780          -4.000742          -2.232547          -1.755479          -3.848710          -1.935305          -0.865571          -1.621842          -0.995142
hessian_block                2      12          -2.197023          -1.734839          -1.042722          -1.793886          -1.097199          -0.842103          -5.930869          -5.481786          -3.201790
hessian_block                3       3          13.041427          -0.972419           6.467298          -0.972419           6.252976          -1.566881           6.467298          -1.566881           7.390785
hessian_block                3       4           0.251458          -0.219397          -0.071478          -1.365811           0.329813          -0.709847           0.366589          -0.111176           0.176763
hessian_block                3       5          -3.351171           0.286151          -2.057239           5.687398          -0.172837           3.805465          -0.922900           0.175126          -0.452108
hessian_block                3       6          -8.704614           1.239445          -5.433832          -7.554765          -1.177476          -3.941285         -14.256228           1.963416          -9.104291
hessian_block                3       7           3.641359          -0.203274           2.383359          -1.753439           0.158179          -1.046348           0.079446          -0.051415           0.056266
hessian_block                3       8          -5.021120          -0.061334          -2.642789          -2.268925          -0.270028          -1.507259           3.732517          -0.667420           2.396675
hessian_block                3       9          -0.431817           0.369385           0.047082          -5.362058           0.309636          -3.340434           0.467059           0.128374           0.492437
hessian_block                3      10           8.933094          -0.211491           5.405231           8.500434          -2.610892           5.732690           9.554233          -0.055713           5.456673
hessian_block                3      11          -5.538523           0.559176          -3.327101          -2.080624           0.036177          -1.383713          -0.901738           0.174092          -0.490400
hessian_block                3      12          -4.775257          -0.073413          -2.482135          -2.989457           0.017548          -1.794386          -9.311239           0.481192          -5.636391
hessian_block                4       4           5.893838           0.122839          -1.977562           0.122839           6.974617           1.445396          -1.977562           1.445396           4.877446
hessian_block                4       5          -0.403952           1.173896           0.158665           0.187475          -2.860178          -0.811522          -0.030209          -1.155789          -0.677351
hessian_block                4       6          -0.063338           1.418274          -0.245268          -0.224467           0.674729          -0.542987           0.327459           1.751847          -0.603254
hessian_block                4       7          -1.953550          -1.360818           0.838642          -0.290855          -0.084893           0.156606           0.844414          -0.002442          -0.476622
hessian_block                4       8          -0.191954           0.369988          -0.245832           0.099397          -0.182588          -0.138832          -0.153781          -0.554618           0.241065
hessian_block                4       9          -0.281079           0.645134           0.125043           0.046744          -1.667558          -1.257197           0.117443          -0.810064          -0.421837
hessian_block                4      10          -0.437060          -1.656834           0.173269          -0.266706          -0.535290           0.559528           0.018942          -0.966217           0.597095
hessian_block                4      11          -1.867723           0.595451           0.657511          -0.617081          -0.589004          -0.078420           0.865513           0.202170          -0.572991
hessian_block                4      12          -0.083652           0.763739          -0.084751           0.377300           0.755137           0.062555           0.017657           1.339848          -0.327395
hessian_block                5       5           6.480063          -3.066065          -0.682016          -3.066065          10.897060          -1.989230          -0.682016          -1.989230           7.790311
hessian_block                5       6           3.824970          -6.970010           1.004916           3.461261          -6.730888           1.701109           6.020837         -12.219458           2.620157
hessian_block                5       7          -1.966247           4.001729          -0.606806           0.028116          -1.233878           0.595185           0.141998           0.628390          -1.028206
hessian_block                5       8           1.324690          -2.546405           0.880534           1.125261          -1.659190          -0.165448          -1.727348           4.361210          -1.613647
hessian_block                5       9          -1.261935          -0.465192           1.703541           1.981810          -6.197862           3.140909           1.261231           2.924000          -3.543349
hessian_block                5      10          -3.869432           7.754860          -0.922977          -3.086925           6.818469          -1.652001          -3.883674           8.068715          -2.249161
hessian_block                5      11           2.796047          -5.125952           1.021663           1.494172          -2.181825           0.274133          -0.097498          -1.128331           1.298476
hessian_block                5      12           1.311399          -1.910342          -0.045887           0.771681          -2.532411           0.551553           3.832474          -7.764464           2.068382
hessian_block                6       6          14.781926           9.333953          17.826049           9.333953          14.350395          17.113363          17.826049          17.113363          35.764248
hessian_block                6       7          -4.123700          -4.119508          -7.323891           2.397400           2.231159           4.276135          -0.200256          -0.357195          -0.884113
hessian_block                6       8           3.459100           3.709596           6.051930           2.272139           2.165983           3.879822          -5.424608          -5.502139         -10.139992
hessian_block                6       9           0.196362           0.286286           0.233566           6.408057           6.775705          11.032767          -0.882433          -1.193627          -2.433861
hessian_block                6      10         -11.851428         -10.845856         -19.855485         -10.134310         -10.532915         -18.111196         -13.190659         -13.011497         -22.893049
hessian_block                6      11           6.143595           6.097873          10.406128           2.064838           2.726113           4.149639           0.961633           1.505887           2.674306
hessian_block                6      12           3.403302           2.832719           5.191147           2.873129           2.669908           5.176874          10.171178           9.778512          17.751100
hessian_block                7       7           7.171984          -0.356484           1.290379          -0.356484           6.291327          -1.253080           1.290379          -1.253080           7.526299
hessian_block                7       8          -1.712277           0.791882          -0.304234          -0.892378           0.240256           0.617854           2.710177          -1.641852           1.059243
hessian_block                7       9           0.308020           0.579166          -0.180990          -3.253698           0.911054          -0.558916           0.832587          -0.480677           1.112881
hessian_block                7      10           4.731503          -2.733167           0.231266           4.212409          -2.562257           0.219412           4.675099          -3.310348           0.775783
hessian_block                7      11          -4.404465           1.761348          -2.002022          -0.580354          -1.259705           2.100762          -2.129802           2.371147          -3.424173
hessian_block                7      12          -1.160645           0.684125           0.204700          -1.746987           0.967327          -0.629979          -4.867288           2.310070          -1.215602
hessian_block                8       8           5.925276           0.740869          -3.069173           0.740869           6.007548           0.079564          -3.069173           0.079564          10.347888
hessian_block                8       9           0.292379          -0.437309          -0.243846           2.618220           1.642004          -3.923029          -0.499168           0.114443           1.563034
hessian_block                8      10          -3.686196          -2.418748           6.045682          -3.734887          -2.275853           5.766399          -4.389150          -2.488341           7.171842
hessian_block                8      11           2.562690           1.162413          -3.741436           1.080696           1.307361          -1.197809           0.832612          -0.296729          -1.679501
hessian_block                8      12           0.281446           1.582730          -0.042784           2.067669          -0.834222          -3.687968           5.211218           0.398343          -8.877370
hessian_block                9       9           5.006104          -0.433780          -0.750344          -0.433780          10.509352          -2.201078          -0.750344          -2.201078           7.621417
hessian_block                9      10          -0.177424          -6.371822           1.039380          -0.376789          -6.242852           1.224933          -0.547070          -7.719302           1.808407
hessian_block                9      11          -0.091720           4.694363          -0.945392          -0.569033           2.427629          -0.080299           0.407629           1.110010          -1.166383
hessian_block                9      12           0.210928           1.646044           0.154866           0.218727           1.607168          -0.748026           0.081482           7.146095          -2.000007
hessian_block               10      10          16.472601          10.122162          13.415163          10.122162          14.980974          12.611348          13.415163          12.611348          20.940275
hessian_block               10      11          -6.613399          -5.904469          -6.992994          -2.260275          -2.928111          -2.667038          -1.221298          -1.767915          -2.162469
hessian_block               10      12          -3.612362          -2.765491          -3.560685          -3.528087          -3.023589          -3.486022         -10.933388          -9.706245         -12.334048
hessian_block               11      11           9.189686           2.022575           1.818037           2.022575           7.102471          -0.927013           1.818037          -0.927013           7.660214
hessian_block               11      12           1.916107           0.530171          -0.007074           2.174422           0.273108           0.897963           6.854958           2.379956           2.027077
hessian_block               12      12           5.679716           0.992938           2.188274           0.992938           6.433088           4.289344           2.188274           4.289344          17.598044
hessian_block_lv             1       1          27.367423          -0.753004           7.522883          -0.753004          25.907236           4.414036           7.522883           4.414036           3.694119
hessian_block_lv_atom        1       1          -1.643281          -1.060936          -1.048227           4.154061           3.211780           2.678202           1.847991           1.367390           1.101492
hessian_block_lv_atom        1       2           4.231544           2.996531           2.625416           5.134811           3.614926           2.659558           2.810444           1.809319           1.474249
hessian_block_lv_atom        1       3           6.279976           4.471600           3.797423          -0.719962          -0.193319          -0.299967           4.204686           2.998607           2.464235
hessian_block_lv_atom        1       4           0.215559           0.159791           0.012145           0.176815           0.120706          -0.350904           0.489507           0.232813           0.130688
hessian_block_lv_atom        1       5          -2.948457          -2.081180          -1.428352           5.212391           4.279290           3.598421          -2.638589          -3.263857          -1.938603
hessian_block_lv_atom        1       6          -6.927930          -5.908746          -4.813745          -7.598397          -6.015889          -4.732809         -14.109035         -12.144299          -9.023841
hessian_block_lv_atom        1       7           2.836826           1.999092           2.239330          -1.746318          -1.816768          -1.373726           0.750128           2.087969           1.284651
hessian_block_lv_atom        1       8          -2.961253          -2.010554          -1.973543          -2.023659          -1.422512          -0.816729           5.555843           5.518483           3.887196
hessian_block_lv_atom        1       9           0.147366           0.227918          -0.259013          -5.775050          -4.697663          -3.507805           1.777450           2.898252           1.730372
hessian_block_lv_atom        1      10           7.364306           6.121762           5.129341           7.923957           5.887581           4.739180          10.349637           9.380539           6.683564
hessian_block_lv_atom        1      11          -4.470664          -3.287464          -3.182573          -2.978982          -1.469296          -0.994716          -2.194828          -2.889579          -1.856795
hessian_block_lv_atom        1      12          -2.123997          -1.627813          -1.098202          -1.759669          -1.498837          -1.598706          -8.843234          -7.995637          -5.937209
symmetry_n_params 39 3 36
symmetry_params a1 b2 c3 x0 x1 x2 x3 x4 x5 x6 x7 x8 x9 x10 x11 x12 x13 x14 x15 x16 x17 x18 x19 x20 x21 x22 x23 x24 x25 x26 x27 x28 x29 x30 x31 x32 x33 x34 x35
symmetry_lv a1 , 0 , 0 
symmetry_lv 0 , b2 , 0 
symmetry_lv 0 , 0 , c3
symmetry_frac x0 , x1 , x2
symmetry_frac x3 , x4 , x5
symmetry_frac x6 , x7 , x8
symmetry_frac x9 , x10 , x11
symmetry_frac x12 , x13 , x14
symmetry_frac x15 , x16 , x17
symmetry_frac x18 , x19 , x20
symmetry_frac x21 , x22 , x23
symmetry_frac x24 , x25 , x26
symmetry_frac x27 , x28 , x29
symmetry_frac x30 , x31 , x32
symmetry_frac x33 , x34 , x35
