# 
# This is the geometry file that corresponds to the current relaxation step.
# If you do not want this file to be written, set the "write_restart_geometry" flag to .false.
#  aims_uuid : 57DB3833-8849-48BD-A1D8-D5A9A1B29D04                                
# 
lattice_vector      5.84718147      0.00000000      0.00000000
lattice_vector      0.00000000      5.95560704      0.00000000
lattice_vector      0.00000000      0.00000000      7.50033685
atom_frac       0.50208710      0.00211452      0.00199970 Pd
atom_frac       0.00212435      0.00212728      0.50222508 Pd
atom_frac       0.00216938      0.50207479      0.00199102 Pd
atom_frac       0.50215348      0.50209543      0.50223497 Pd
atom_frac       0.61427340      0.12047464      0.40546168 Se
atom_frac       0.88985896      0.88378565      0.90526595 Se
atom_frac       0.11428632      0.38374826      0.59893255 Se
atom_frac       0.38993710      0.62048479      0.09884146 Se
atom_frac       0.38989571      0.88370561      0.59894164 Se
atom_frac       0.11430231      0.12042824      0.09874407 Se
atom_frac       0.88989725      0.62047752      0.40544897 Se
atom_frac       0.61428970      0.38375837      0.90518800 Se
# 
# What follows is the current estimated Hessian matrix constructed by the BFGS algorithm.
# This is NOT the true Hessian matrix of the system.
# If you do not want this information here, switch it off using the "hessian_to_restart_geometry" keyword.
# 
trust_radius             0.0976863360
hessian_block                1       1           5.983957           0.109673          -2.221661           0.109673           6.479245          -1.184828          -2.221661          -1.184828           4.660726
hessian_block                1       2           0.005638           0.564404          -0.100272           0.305037           0.200841          -0.153788          -0.007783           0.043011           0.053966
hessian_block                1       3          -0.015230           0.668389          -0.095581          -0.004435          -0.046108           0.117937          -0.154843           0.129092          -0.108251
hessian_block                1       4           0.522910           0.275108          -0.136787           0.110114          -0.469399          -0.079911           0.054632          -0.056692           0.082667
hessian_block                1       5          -0.022086          -0.648165          -0.138171          -0.260561           0.191094           0.248022          -0.325549           0.178964          -0.097288
hessian_block                1       6          -1.944631           0.006983           0.833112           0.325045          -0.442424          -0.288246           1.126673          -0.339065          -0.774160
hessian_block                1       7          -0.345178           0.072162           0.170373          -0.012767           0.303876           0.075023           0.210215          -0.027198           0.284408
hessian_block                1       8          -0.239416          -0.416288           0.405311          -0.263081          -1.948719           0.755900           0.130096           0.744839          -0.317278
hessian_block                1       9          -0.171163           0.171660           0.243160          -0.455072          -0.172254          -0.105244           0.100598          -0.192209           0.306137
hessian_block                1      10          -2.158156           0.738904           0.908766           0.143501          -0.359842          -0.274908           0.865193          -0.239716          -0.224952
hessian_block                1      11           0.013106          -0.435482          -0.042312           0.317595          -0.038682           0.016593          -0.005260           0.276908          -0.113726
hessian_block                1      12          -0.063839          -1.107350           0.174062          -0.315051          -2.050605           0.873448           0.227690           0.666891          -0.650383
hessian_block                2       2           6.135597           0.204356           2.363206           0.204356           7.277526           1.873266           2.363206           1.873266           4.996771
hessian_block                2       3           0.990558           0.690763           0.483749          -0.315452          -0.503594          -0.320131           0.145505           0.008793           0.172357
hessian_block                2       4           0.254910           0.556795           0.192083          -0.581977           0.688107           0.282046          -0.004090           0.542835           0.139234
hessian_block                2       5          -2.293024           0.082818          -1.023822           0.384339          -0.795801          -0.125594          -0.636907          -0.063957          -0.299655
hessian_block                2       6          -0.434269           0.294635           0.124189          -0.236536          -0.778823          -0.252518          -0.239636           0.030349           0.148791
hessian_block                2       7          -0.271227          -0.705824          -0.352174          -0.347910          -1.430738          -0.636866          -0.399379          -1.564339          -1.093210
hessian_block                2       8          -0.087714          -0.391270          -0.263926           0.056755          -0.580610          -0.324050          -0.158075          -0.373256          -0.266413
hessian_block                2       9          -1.866425           0.451488          -0.946282           0.929258          -0.830232           0.280290          -1.219157          -0.369490          -1.032022
hessian_block                2      10           0.365877          -0.527769          -0.091763           0.187020           0.764305           0.527364           0.302030           0.418814           0.050431
hessian_block                2      11          -0.395097          -0.582027          -0.235327          -0.585171          -3.289447          -1.695159          -0.090177          -0.797963          -0.218480
hessian_block                2      12          -0.838916          -0.379001          -0.242152          -0.259083           0.925490           0.348340           0.036952           0.448735           0.450096
hessian_block                3       3           6.712535          -0.425194           2.381151          -0.425194           6.347007          -1.200145           2.381151          -1.200145           4.744736
hessian_block                3       4           0.394328          -0.210786          -0.042189          -0.421215           0.066081          -0.093145           0.100463          -0.220661           0.069832
hessian_block                3       5          -0.825513           0.077639          -0.361979          -0.304259           0.531290           0.114492           0.251825           0.147994           0.058561
hessian_block                3       6          -0.613364           0.237158          -0.328865           0.059339          -1.806651           0.751215          -0.595430           0.801118          -0.810361
hessian_block                3       7          -0.175518           0.106142           0.042812           0.352941          -0.167318           0.174198          -0.568379           0.152823          -0.065715
hessian_block                3       8          -1.995575          -0.240511          -0.744298          -0.758535          -0.233484          -0.515132          -1.158491          -0.133549          -0.481886
hessian_block                3       9          -0.109059           0.331372           0.228154           0.344622          -0.189197           0.142524          -0.746697           0.344009           0.013694
hessian_block                3      10           0.271565           0.667685          -0.004329           1.056237          -2.165425           1.125829           0.221306           0.661939          -0.147204
hessian_block                3      11          -0.275823           0.013971          -0.007697          -0.668393           0.279955          -0.350624           0.313472           0.126231           0.024611
hessian_block                3      12          -2.792992          -0.237590          -1.153426          -0.594696          -0.465530          -0.287096          -0.587390          -0.477566          -0.368506
hessian_block                4       4           5.949818           0.107342          -1.991741           0.107342           6.984834           1.577417          -1.991741           1.577417           4.916362
hessian_block                4       5          -0.487522           0.782659           0.277688           0.183139          -2.173340          -1.138810          -0.065761          -1.202667          -0.454200
hessian_block                4       6          -0.147931           0.527931           0.213925          -0.305981          -0.383887          -0.204146           0.179639           0.026779           0.183700
hessian_block                4       7          -2.008940          -0.710962           0.802825          -0.293947          -0.210335           0.365668           0.815393          -0.231330          -0.786015
hessian_block                4       8          -0.282276          -0.174408          -0.174065           0.112038          -0.553925          -0.207960          -0.210698          -0.108488          -0.114783
hessian_block                4       9          -0.291558           0.570492           0.112790           0.161372          -2.496903          -1.139020           0.118949          -0.950133          -0.763312
hessian_block                4      10          -0.323320          -0.524749          -0.250276          -0.103235           0.670461           0.272195           0.188469           0.199512          -0.014168
hessian_block                4      11          -1.848505          -0.159632           0.808590          -0.717905          -1.170655          -0.226222           0.842631           0.164911          -0.334547
hessian_block                4      12          -0.166005           0.474406           0.049259           0.236061           0.695984           0.435396           0.110013           0.415011           0.177096
hessian_block                5       5           5.693566          -0.332830          -1.216470          -0.332830           6.116878          -1.029061          -1.216470          -1.029061           7.039224
hessian_block                5       6           0.193741          -0.380122          -0.097503           0.082932          -0.171218           0.204745           0.145809          -0.402221          -0.116590
hessian_block                5       7          -0.151494           0.935356          -0.167448          -1.048824           0.118197           0.233079           0.541862           0.588034          -0.547279
hessian_block                5       8          -0.158507           0.081983           0.529121           0.643270           0.025667          -0.390220           0.428922           0.465928          -0.545960
hessian_block                5       9          -1.604854          -0.425246           1.812209          -0.704351          -1.682005           2.305723           1.898723           2.314491          -2.862280
hessian_block                5      10          -0.028195           0.468866           0.298625           0.140079           0.016231          -0.059380           0.099561          -0.132328          -0.138273
hessian_block                5      11           0.411877          -0.747156           0.278698           1.213705           0.094705          -0.236065          -0.633324          -0.177601           0.565498
hessian_block                5      12           0.837921           0.396490          -0.660836          -0.288931          -0.624672          -0.089160          -0.018799          -0.725352           0.500107
hessian_block                6       6           5.771846           0.386167           1.954865           0.386167           5.730905           1.342086           1.954865           1.342086           7.934912
hessian_block                6       7           0.234311          -0.163097           0.021479           0.531738           0.051609           0.449214          -0.354567           0.285401           0.043018
hessian_block                6       8          -0.042927           0.463025           0.165068          -0.104702           0.247422           0.542792          -0.138524          -0.007798          -0.496554
hessian_block                6       9           0.130024           0.229428           0.026889          -0.030132           0.782705           0.005696          -0.285523           0.169686          -0.141285
hessian_block                6      10          -1.940103          -1.148306          -2.736298          -0.973222          -1.857622          -2.241235          -2.310135          -2.052633          -3.532410
hessian_block                6      11           0.019088           0.387016          -0.132473          -0.978209           0.498134          -0.125466          -0.137839          -0.042335          -0.063113
hessian_block                6      12           0.340124          -0.079032           0.083415           0.481772          -0.223124          -0.090046           0.526867           0.094542           0.725916
hessian_block                7       7           5.412630           0.581989           1.208717           0.581989           6.092632          -1.428379           1.208717          -1.428379           7.589410
hessian_block                7       8          -0.160177           0.022517          -0.155032           0.053023          -0.506931           0.893412           0.286628          -0.496332           0.897551
hessian_block                7       9           0.296656           0.707179          -0.334226          -0.649117          -0.441085          -0.432154           0.437877          -0.437443           1.006288
hessian_block                7      10           0.048327          -0.556947           0.150861           0.189343          -0.184603          -0.793218          -0.363835          -0.568932          -0.117108
hessian_block                7      11          -1.716079           0.397817          -1.842427           0.559464          -2.486777           3.099021          -1.657985           2.028378          -3.006928
hessian_block                7      12           0.402599          -0.333786           0.726960          -0.268478           0.508498          -0.542073          -0.429267           0.242386          -1.102556
hessian_block                8       8           5.011404          -0.097984          -0.873531          -0.097984           5.890853           1.309217          -0.873531           1.309217           7.132326
hessian_block                8       9           0.463760          -0.650105          -0.173665           0.225754           0.225664          -0.243120          -0.133141           0.522586           0.845184
hessian_block                8      10          -0.040968          -0.051146           0.260475          -0.670881          -0.533106          -0.002781          -0.453104          -0.241514           0.362568
hessian_block                8      11           0.225280          -0.220139          -0.178857           0.248574           1.399967           0.767583           0.414523          -0.529586          -0.695200
hessian_block                8      12          -1.126976           1.280607           1.785722           0.949489          -1.785772          -1.922244           1.283076          -1.815445          -3.217691
hessian_block                9       9           5.211319          -0.430251          -0.914103          -0.430251           6.562669          -1.541681          -0.914103          -1.541681           7.286001
hessian_block                9      10          -0.107859           0.538149           0.179986          -0.325921          -0.084214          -0.458944          -0.453719          -0.077622          -0.043337
hessian_block                9      11          -0.178512           0.687893          -0.325115          -0.863183           0.524504           1.010141           0.486100           0.290243          -0.541920
hessian_block                9      12          -0.206422          -0.618128           0.887604           0.233086          -0.552626          -0.411017          -0.087305           0.514367          -0.971282
hessian_block               10      10           5.726074           0.378214           1.679926           0.378214           6.520964           1.630720           1.679926           1.630720           7.402333
hessian_block               10      11           0.043658          -0.083819           0.231106           0.623520          -1.207876           0.165119           0.035076          -0.082700          -0.030333
hessian_block               10      12          -0.290990           0.062682          -0.006795          -0.606423           0.067755           0.236639          -0.431051           0.357059          -0.465681
hessian_block               11      11           5.296509           0.388847           1.056000           0.388847           8.016286          -1.502958           1.056000          -1.502958           6.949925
hessian_block               11      12          -0.029593           0.461153          -0.623212           0.352708          -0.973093           0.246474           0.389811          -0.921963           0.566075
hessian_block               12      12           5.500998           0.079546          -1.020596           0.079546           6.124719           1.201337          -1.020596           1.201337           7.458676
hessian_block_lv             1       1          20.422539          -2.523313           4.472549          -2.523313          22.084952           2.320619           4.472549           2.320619           1.750507
hessian_block_lv_atom        1       1           0.247294           0.472028           0.080643          -0.378513          -0.294488          -0.155281          -0.447516           0.291604           0.079572
hessian_block_lv_atom        1       2          -0.605444          -0.654929          -0.221999          -0.072760          -0.533289          -0.142263           0.186830          -0.858947          -0.208280
hessian_block_lv_atom        1       3          -0.835239          -1.030258          -0.362508           0.397163           0.558954           0.119000          -0.485215          -0.167695          -0.057997
hessian_block_lv_atom        1       4          -0.067797           0.076768          -0.034646           0.668587           0.291309           0.119792           0.251734          -0.386431          -0.069379
hessian_block_lv_atom        1       5           0.180349           0.502998           0.399247           0.289277           0.356412           0.311588          -2.810992          -1.438612          -1.325241
hessian_block_lv_atom        1       6           0.698091          -0.660770          -0.244900          -0.184665           0.168530          -0.133065          -2.309666          -1.164540          -1.261835
hessian_block_lv_atom        1       7          -0.761491          -0.467829           0.097279          -0.903231          -1.015930          -0.502345           2.759810           1.782415           1.437524
hessian_block_lv_atom        1       8           0.689979           0.305280          -0.145325           0.290434           0.255590           0.237597           2.500837           1.686061           1.393720
hessian_block_lv_atom        1       9           0.472277           0.061930          -0.190804          -0.616468          -0.637653          -0.404674           3.026415           1.833246           1.458350
hessian_block_lv_atom        1      10          -0.886353           0.329395           0.220140           0.123222          -0.743904           0.041321           2.381792           1.358261           1.259027
hessian_block_lv_atom        1      11           0.785717           0.483659          -0.049777           0.642529           1.565041           0.629130          -2.661405          -1.310909          -1.306198
hessian_block_lv_atom        1      12           0.082613           0.581730           0.452649          -0.255577           0.029426          -0.120802          -2.392624          -1.624453          -1.399262
