# 
# This is the geometry file that corresponds to the current relaxation step.
# If you do not want this file to be written, set the "write_restart_geometry" flag to .false.
#  aims_uuid : 68883032-5806-43E9-A3B8-FE6E3E7E8ABD                                
# 
lattice_vector      3.71974077      0.00000000      0.00000000
lattice_vector     -1.85987038      3.22139000      0.00000000
lattice_vector      0.00000000      0.00000000    101.72780199
atom_frac       0.00053581      0.66727257      0.50094959 Se
atom_frac       0.33375015      0.33376050      0.47493574 Se
atom_frac       0.66709159      0.00034448      0.48794376 Pt
# 
# What follows is the current estimated Hessian matrix constructed by the BFGS algorithm.
# This is NOT the true Hessian matrix of the system.
# If you do not want this information here, switch it off using the "hessian_to_restart_geometry" keyword.
# 
trust_radius             0.0275804985
hessian_block                1       1           1.042772          -0.701424          -3.874249          -0.701424           1.206749           2.899807          -3.874249           2.899807         942.770866
hessian_block                1       2           0.113305          -0.078532          -0.268170          -0.104861           0.431477           3.429948           2.034798          -8.252428        -142.543426
hessian_block                1       3          -0.912070           0.657953           4.142418           0.684281          -1.394219          -6.329755           1.839451           5.352621        -621.074503
hessian_block                2       2           1.097123          -0.612806           2.602639          -0.612806           1.188401          -8.904240           2.602639          -8.904240        1176.040176
hessian_block                2       3          -0.966421           0.595663          -4.637436           0.569335          -1.375871          17.156668          -2.334469           5.474293        -854.343813
hessian_block                3       3           2.122498          -1.375619           0.495018          -1.375619           3.014097         -10.826913           0.495018         -10.826913        1654.571253
hessian_block_lv             1       1          16.127938           0.160090           0.000000           0.160090           0.011691           0.000000           0.000000           0.000000           0.000000
hessian_block_lv_atom        1       1          -0.028524          -0.023509           0.000000           0.083728           0.050010           0.000000          57.011065           1.780067           0.000000
hessian_block_lv_atom        1       2          -0.087251          -0.009305           0.000000           0.188006           0.044722           0.000000         -58.287789          -2.748115           0.000000
hessian_block_lv_atom        1       3           0.115775           0.032814           0.000000          -0.271735          -0.094732           0.000000           1.276724           0.968048           0.000000
