#=======================================================
# FHI-aims file: geometry.in
# Created using the Atomic Simulation Environment (ASE)
# Thu Apr  2 11:28:28 2020
#=======================================================
lattice_vector 3.7869355100000002 0.0000000000000000 0.0000000000000000 
lattice_vector -1.8934677600000001 3.2795823600000000 0.0000000000000000 
lattice_vector 0.0000000000000000 0.0000000000000000 102.6121382299999993 
atom_frac 0.0000000000000000 0.6666666666666666 0.5000000000269269 Se
atom_frac 0.3333333342135524 0.3333333333333333 0.4745435747437404 Se
atom_frac 0.6666666657864475 0.0000000000000000 0.4872717874340609 Pt
symmetry_n_params 11 2 9
symmetry_params a1 c3 x0 x1 x2 x3 x4 x5 x6 x7 x8
symmetry_lv a1 , 0 , 0 
symmetry_lv -a1/2 , sqrt(3.0)*a1/2 , 0 
symmetry_lv 0 , 0 , c3
symmetry_frac x0 , x1 , x2
symmetry_frac x3 , x4 , x5
symmetry_frac x6 , x7 , x8
