# 
# This is the geometry file that corresponds to the current relaxation step.
# If you do not want this file to be written, set the "write_restart_geometry" flag to .false.
#  aims_uuid : 0D50721A-F700-473F-AC70-B0B3DB9D69ED                                
# 
lattice_vector      3.28800646      0.00000000      0.00000000
lattice_vector     -1.64400323      2.84749712      0.00000000
lattice_vector      0.00000000      0.00000000     13.22548074
atom_frac       0.33074203      0.66610267      0.25411857 W
atom_frac       0.67754574      0.34218290      0.75415828 W
atom_frac       0.34409077      0.67544445      0.88177351 Se
atom_frac       0.66418023      0.33282895      0.38173340 Se
atom_frac       0.66418336      0.33282708      0.12650465 Se
atom_frac       0.34409003      0.67544610      0.62654375 Se
# 
# What follows is the current estimated Hessian matrix constructed by the BFGS algorithm.
# This is NOT the true Hessian matrix of the system.
# If you do not want this information here, switch it off using the "hessian_to_restart_geometry" keyword.
# 
trust_radius             0.0008152956
hessian_block                1       1         478.718608         165.571042         -12.122744         165.571042          76.680790          -3.635416         -12.122744          -3.635416         195.461574
hessian_block                1       2        -472.452037        -172.939494           7.334867        -168.222054         -65.365529           1.120226           5.321953          -1.286140         -28.331141
hessian_block                1       3           0.005712          -1.540963           0.474819           5.964018           3.791445           0.691315          25.995291          18.650987          28.541295
hessian_block                1       4          -2.548959           5.211673           1.776795          -5.005623          -9.195830           0.755313          53.302029          29.931357        -116.482201
hessian_block                1       5          -3.348282           4.238256           2.564300          -4.215196          -8.259043          -0.074715         -51.080127         -27.655086         -72.130895
hessian_block                1       6           0.484190          -0.970130          -0.028038           5.478197           3.207398           1.143277         -21.416402         -16.005702           7.389358
hessian_block                2       2         483.983883         164.612358          -5.601319         164.612358          76.394058          -1.543957          -5.601319          -1.543957         224.695181
hessian_block                2       3          -3.783357           4.493827          -0.178872          -3.750264          -9.123532          -0.289710         -34.764708         -20.848805         -94.240519
hessian_block                2       4          -1.601214          -2.940412           0.267322           7.737370           4.058531           1.737404         -45.442948         -19.110835           4.178068
hessian_block                2       5          -1.276520          -2.552966           0.541008           7.410887           3.671394           1.474484          48.566221          22.185146          23.114466
hessian_block                2       6          -4.011523           4.179631          -0.350093          -3.500474          -8.775691          -0.092080          29.907887          18.198225        -114.968065
hessian_block                3       3           3.728124          -2.697931          -1.417662          -2.697931           4.461988           4.982317          -1.417662           4.982317         159.515895
hessian_block                3       4          -0.773535           1.036196           5.976003           0.716869          -0.669910          -4.011385          -5.151863           1.998541           8.911447
hessian_block                3       5          -0.403508           0.860735           4.783968           0.355119          -0.492266          -2.840194           4.206464          -3.196343         -40.129267
hessian_block                3       6           2.085796          -1.842371          -0.572892          -1.756538           2.891506           4.067080           2.067114          -4.186121         -48.150861
hessian_block                4       4           4.005796          -2.755870           2.091466          -2.755870           4.469729          -8.302057           2.091466          -8.302057         223.550199
hessian_block                4       5           2.402983          -1.520493          -2.603011          -1.860749           2.547709          -3.649829          -3.612055           6.558253         -83.698115
hessian_block                4       6          -0.625838           0.398131          -2.195673           0.879546          -0.350996          -0.867178          -6.499531           3.262472         -22.011407
hessian_block                5       5           3.983553          -2.398800          -0.035909          -2.398800           3.803696           3.070986          -0.035909           3.070986         167.173661
hessian_block                5       6          -0.498993           0.279122           1.955406           0.943652          -0.412258          -0.962956          -5.250356           2.019269          20.118140
hessian_block                6       6           3.425600          -2.473999           1.191289          -2.473999           4.299272          -3.288143           1.191289          -3.288143         172.070825
hessian_block_lv             1       1          64.259869           7.857596           0.000000           7.857596           3.183204           0.000000           0.000000           0.000000           0.000000
hessian_block_lv_atom        1       1           8.048166           6.776005           0.000000           9.910323           4.146265           0.000000          -3.783798          -2.638638           0.000000
hessian_block_lv_atom        1       2          -9.107099          -6.777328           0.000000          -8.011571          -2.641241           0.000000           2.964694          -1.000258           0.000000
hessian_block_lv_atom        1       3          -2.363645          -0.496957           0.000000           2.607078           0.319188           0.000000          28.356320           9.975614           0.000000
hessian_block_lv_atom        1       4           3.134019           0.596926           0.000000          -3.801951          -1.167990           0.000000          45.842005          20.446618           0.000000
hessian_block_lv_atom        1       5           1.709679           0.063313           0.000000          -2.386702          -0.644793           0.000000         -38.311803         -16.145321           0.000000
hessian_block_lv_atom        1       6          -1.421120          -0.161960           0.000000           1.682823          -0.011429           0.000000         -35.067418         -10.638015           0.000000
