#=======================================================
# FHI-aims file: geometry.in
# Created using the Atomic Simulation Environment (ASE)
# Wed Dec 23 22:15:15 2020
#=======================================================
lattice_vector 0.0000000000000000 2.7343639799999999 2.7343639799999999 
lattice_vector 2.7343639799999999 0.0000000000000000 2.7343639799999999 
lattice_vector 2.7343639799999999 2.7343639799999999 0.0000000000000000 
atom 0.0000000000000000 0.0000000000000000 0.0000000000000000 Si
atom 1.3671819900000000 1.3671819900000000 1.3671819900000000 Si
