# 
# This is the geometry file that corresponds to the current relaxation step.
# If you do not want this file to be written, set the "write_restart_geometry" flag to .false.
#  aims_uuid : 5A2C8A0E-A29E-4A55-AF01-C0AB70985FE8                                
# 
lattice_vector      3.77889156      0.00000000      0.00000000
lattice_vector     -1.88944578      3.27261609      0.00000000
lattice_vector      0.00000000      0.00000000      4.95764232
atom_frac      -0.00028244     -0.00030886     -0.00024079 Pt
atom_frac       0.33321826      0.66623792      0.25938860 Se
atom_frac       0.66630598      0.33331272      0.74009397 Se
# 
# What follows is the current estimated Hessian matrix constructed by the BFGS algorithm.
# This is NOT the true Hessian matrix of the system.
# If you do not want this information here, switch it off using the "hessian_to_restart_geometry" keyword.
# 
trust_radius             0.1000000015
hessian_block                1       1           9.303853          -0.204122           0.795302          -0.204122           6.996338          -0.349534           0.795302          -0.349534          24.204630
hessian_block                1       2          -3.718128          -0.414592          -0.614140          -0.018620          -2.330732           0.708835          -0.129265           0.244492         -10.242480
hessian_block                1       3          -3.722642          -0.312827          -0.181162          -0.708800          -2.802523          -0.359302          -0.666038           0.105041         -10.889140
hessian_block                2       2           5.517768          -1.393528           0.825388          -1.393528           5.545952          -1.292988           0.825388          -1.292988          14.857716
hessian_block                2       3           0.063443           0.480606          -0.696123           0.876579          -1.352137           1.048495          -0.211248           0.584152          -1.542226
hessian_block                3       3           5.522282          -1.099321           0.877286          -1.099321           6.017743          -0.689194           0.877286          -0.689194          15.504377
hessian_block_lv             1       1          35.686968           5.763147           0.000000           5.763147           1.962673           0.000000           0.000000           0.000000           0.000000
hessian_block_lv_atom        1       1           0.339875           0.132942           0.000000           0.119003           0.069479           0.000000           0.440959           0.109440           0.000000
hessian_block_lv_atom        1       2           1.491751           0.250172           0.000000           1.996655           0.154756           0.000000           2.796371           2.393262           0.000000
hessian_block_lv_atom        1       3          -1.831625          -0.383114           0.000000          -2.115658          -0.224234           0.000000          -3.237330          -2.502702           0.000000
