# 
# This is the geometry file that corresponds to the current relaxation step.
# If you do not want this file to be written, set the "write_restart_geometry" flag to .false.
#  aims_uuid : 358A32CF-EC7C-4442-ABBB-321E94E50FA2                                
# 
lattice_vector      3.71997816      0.00000000      0.00000000
lattice_vector     -1.85998908      3.22159559      0.00000000
lattice_vector      0.00000000      0.00000000    101.66553356
atom_frac       0.00071831      0.66734569      0.50128285 Se
atom_frac       0.33399556      0.33402121      0.47526286 Se
atom_frac       0.66734180      0.00068877      0.48827466 Pt
# 
# What follows is the current estimated Hessian matrix constructed by the BFGS algorithm.
# This is NOT the true Hessian matrix of the system.
# If you do not want this information here, switch it off using the "hessian_to_restart_geometry" keyword.
# 
trust_radius             0.0475995984
hessian_block                1       1           1.149575          -0.696600          -4.763664          -0.696600           1.077941           3.610896          -4.763664           3.610896        1116.609724
hessian_block                1       2           0.020758           0.103783           2.112047           0.121146           0.055891          -1.229473          -1.229088           0.059369         -30.468903
hessian_block                1       3          -0.926326           0.470813           2.651617           0.453451          -0.889825          -2.381423           5.992752          -3.670265        -906.987883
hessian_block                2       2           1.050957          -0.651253           1.944075          -0.651253           0.995587          -1.352188           1.944075          -1.352188         947.013219
hessian_block                2       3          -0.827707           0.408104          -0.714986           0.425467          -0.807471           1.292818          -4.056121           2.581661        -737.391379
hessian_block                3       3           1.998040          -1.000921          -1.936631          -1.000921           1.941303           1.088604          -1.936631           1.088604        1823.532200
hessian_block_lv             1       1          18.450197           0.107300           0.000000           0.107300           0.004533           0.000000           0.000000           0.000000           0.000000
hessian_block_lv_atom        1       1          -0.493011           0.008390           0.000000           0.466641          -0.005642           0.000000          76.602186           0.980316           0.000000
hessian_block_lv_atom        1       2           0.012771          -0.003414           0.000000          -0.004633           0.004092           0.000000         -54.910494          -1.415647           0.000000
hessian_block_lv_atom        1       3           0.480240          -0.004976           0.000000          -0.462008           0.001551           0.000000         -21.691692           0.435331           0.000000
