# 
# This is the geometry file that corresponds to the current relaxation step.
# If you do not want this file to be written, set the "write_restart_geometry" flag to .false.
#  aims_uuid : C20EC07C-4736-42DD-AB85-B5DAB106B1FA                                
# 
lattice_vector      3.77761496      0.00000000      0.00000000
lattice_vector     -1.88880748      3.27151052      0.00000000
lattice_vector      0.00000000      0.00000000      4.98907275
atom_frac      -0.00040962     -0.00032468     -0.00036004 Pt
atom_frac       0.33291043      0.66613750      0.25772990 Se
atom_frac       0.66639221      0.33308020      0.74152316 Se
# 
# What follows is the current estimated Hessian matrix constructed by the BFGS algorithm.
# This is NOT the true Hessian matrix of the system.
# If you do not want this information here, switch it off using the "hessian_to_restart_geometry" keyword.
# 
trust_radius             0.1000000015
hessian_block                1       1           8.268078          -1.042788           1.529072          -1.042788           7.752091          -1.013317           1.529072          -1.013317          25.210023
hessian_block                1       2          -3.002822          -0.468627          -1.006662          -0.398061          -2.341254           0.931086          -1.775487           1.492016         -10.869351
hessian_block                1       3          -3.402173           0.579873          -0.522411           0.509308          -3.547754           0.082230           0.246414          -0.478699         -11.267662
hessian_block                2       2           5.911340          -1.475019           0.991833          -1.475019           6.411357          -1.387586           0.991833          -1.387586          16.104826
hessian_block                2       3          -1.045435           0.941539           0.783654           1.012104          -2.207020          -0.104429           0.014828           0.456500          -2.162464
hessian_block                3       3           6.310691          -2.452953          -0.261243          -2.452953           7.617857           0.022199          -0.261243           0.022199          16.503137
hessian_block_lv             1       1          31.098984           5.512713           0.000000           5.512713           2.022274           0.000000           0.000000           0.000000           0.000000
hessian_block_lv_atom        1       1          -1.116144          -0.419816           0.000000           0.855195           0.316951           0.000000          -0.816580          -0.210173           0.000000
hessian_block_lv_atom        1       2           1.423266           0.373313           0.000000           3.777946           0.452846           0.000000           4.890512           2.727565           0.000000
hessian_block_lv_atom        1       3          -0.307121           0.046503           0.000000          -4.633141          -0.769797           0.000000          -4.073932          -2.517392           0.000000
