# 
# This is the geometry file that corresponds to the current relaxation step.
# If you do not want this file to be written, set the "write_restart_geometry" flag to .false.
#  aims_uuid : E132AE6E-AE56-45DC-AAFB-C8F7FF46F459                                
# 
lattice_vector      3.71971290      0.00000000      0.00000000
lattice_vector     -1.85985645      3.22136586      0.00000000
lattice_vector      0.00000000      0.00000000    101.49167896
atom_frac       0.00043236      0.66723200      0.50093381 Se
atom_frac       0.33387925      0.33374438      0.47485581 Se
atom_frac       0.66696495      0.00030018      0.48789182 Pt
# 
# What follows is the current estimated Hessian matrix constructed by the BFGS algorithm.
# This is NOT the true Hessian matrix of the system.
# If you do not want this information here, switch it off using the "hessian_to_restart_geometry" keyword.
# 
trust_radius             0.0798438449
hessian_block                1       1           1.091295          -0.616239          -2.275227          -0.616239           1.225129           6.076351          -2.275227           6.076351        1139.233342
hessian_block                1       2          -0.028323           0.168700           5.300417           0.035790           0.157051           3.987335          -1.017290          -3.296877        -151.658227
hessian_block                1       3          -0.818965           0.325535          -3.025190           0.458445          -1.138173         -10.063685           3.292517          -2.779473        -808.422178
hessian_block                2       2           1.285605          -0.442024          -3.142128          -0.442024           0.950884           0.107359          -3.142128           0.107359         947.731188
hessian_block                2       3          -1.013275           0.284231           4.159418           0.151320          -0.863928           3.189518          -2.158289          -4.094694        -616.920024
hessian_block                3       3           2.076247          -0.731769          -1.134228          -0.731769           2.246108           6.874167          -1.134228           6.874167        1604.495139
hessian_block_lv             1       1          16.871290           0.206652           0.000000           0.206652           0.008154           0.000000           0.000000           0.000000           0.000000
hessian_block_lv_atom        1       1           0.009220          -0.005886           0.000000           0.339970           0.031297           0.000000          69.127162           2.317587           0.000000
hessian_block_lv_atom        1       2           0.295605           0.030178           0.000000           0.264344           0.010059           0.000000         -61.241704          -1.711939           0.000000
hessian_block_lv_atom        1       3          -0.304825          -0.024292           0.000000          -0.604314          -0.041356           0.000000          -7.885458          -0.605648           0.000000
