# 
# This is the geometry file that corresponds to the current relaxation step.
# If you do not want this file to be written, set the "write_restart_geometry" flag to .false.
#  aims_uuid : 79608B82-C190-477A-A32F-E175AC531BD4                                
# 
lattice_vector      3.28858541      0.00000000      0.00000000
lattice_vector     -1.64429271      2.84799851      0.00000000
lattice_vector      0.00000000      0.00000000    102.55982169
atom_frac       0.00012114      0.00019106      0.50003673 Se
atom_frac       0.33340721      0.66675493      0.48357657 W
atom_frac      -0.00000059      0.00010953      0.46711501 Se
# 
# What follows is the current estimated Hessian matrix constructed by the BFGS algorithm.
# This is NOT the true Hessian matrix of the system.
# If you do not want this information here, switch it off using the "hessian_to_restart_geometry" keyword.
# 
trust_radius             0.1000000015
hessian_block                1       1           1.080699          -0.596378         -12.663076          -0.596378           1.151589           4.302027         -12.663076           4.302027        2546.459688
hessian_block                1       2          -1.372968           0.581827          22.123612           0.587449          -1.136604          -7.944491          11.860487          -2.684060       -2333.726664
hessian_block                1       3           0.512775          -0.095702          -9.460536          -0.101323           0.205521           3.642465           0.802589          -1.617966           6.642880
hessian_block                2       2           2.926311          -1.280876         -21.605508          -1.280876           2.444840           4.892416         -21.605508           4.892416        4228.806360
hessian_block                2       3          -1.332837           0.583174           9.745020           0.588796          -1.087730          -2.208356          -0.518104           3.052075       -1675.703792
hessian_block                3       3           1.040568          -0.597725          -0.284484          -0.597725           1.102716          -1.434108          -0.284484          -1.434108        1888.436816
hessian_block_lv             1       1          25.431205           0.236656           0.000000           0.236656           0.012647           0.000000           0.000000           0.000000           0.000000
hessian_block_lv_atom        1       1          -0.527606          -0.029853           0.000000           0.368187           0.008449           0.000000          70.120684           4.458824           0.000000
hessian_block_lv_atom        1       2           0.764344           0.052559           0.000000          -0.734530          -0.016188           0.000000          10.657199          -1.568052           0.000000
hessian_block_lv_atom        1       3          -0.236738          -0.022706           0.000000           0.366343           0.007739           0.000000         -80.777883          -2.890771           0.000000
