# 
# This is the geometry file that corresponds to the current relaxation step.
# If you do not want this file to be written, set the "write_restart_geometry" flag to .false.
#  aims_uuid : 01DECF9F-C12E-421A-A4C0-E1A80E7642B8                                
# 
lattice_vector      3.28812542      0.00000000      0.00000000
lattice_vector     -1.64406271      2.84760015      0.00000000
lattice_vector      0.00000000      0.00000000    102.65359008
atom_frac       0.00004283      0.00020584      0.50007436 Se
atom_frac       0.33342613      0.66679497      0.48363075 W
atom_frac       0.00009657      0.00013027      0.46718754 Se
# 
# What follows is the current estimated Hessian matrix constructed by the BFGS algorithm.
# This is NOT the true Hessian matrix of the system.
# If you do not want this information here, switch it off using the "hessian_to_restart_geometry" keyword.
# 
trust_radius             0.0942655547
hessian_block                1       1           1.216838          -0.535837           7.248684          -0.535837           1.194898          -0.871993           7.248684          -0.871993        2404.336144
hessian_block                1       2          -1.015258           0.540660          -5.681811           0.270293          -1.357805          -5.219802          -4.735269          -5.684593       -1967.020918
hessian_block                1       3           0.018926          -0.115076          -1.566873           0.155291           0.383413           6.091796          -2.513415           6.556586        -217.939323
hessian_block                2       2           2.208577          -1.240733           4.154124          -1.240733           3.522210          17.908468           4.154124          17.908468        4009.377507
hessian_block                2       3          -0.972813           0.860187           0.581145           0.589820          -1.943899         -12.223875           1.527687         -12.688666       -1822.980686
hessian_block                3       3           1.174393          -0.855364           0.985728          -0.855364           1.780992           6.132079           0.985728           6.132079        2260.295913
hessian_block_lv             1       1          32.261883           0.358230           0.000000           0.358230           0.014737           0.000000           0.000000           0.000000           0.000000
hessian_block_lv_atom        1       1          -0.075333           0.009971           0.000000          -0.665751          -0.021889           0.000000          59.528307           4.013775           0.000000
hessian_block_lv_atom        1       2           0.343297          -0.013746           0.000000           1.462909           0.046736           0.000000          63.667594           0.353679           0.000000
hessian_block_lv_atom        1       3          -0.267964           0.003775           0.000000          -0.797158          -0.024847           0.000000        -123.195901          -4.367454           0.000000
