# 
# This is the geometry file that corresponds to the current relaxation step.
# If you do not want this file to be written, set the "write_restart_geometry" flag to .false.
#  aims_uuid : 862112D4-C43D-47F2-AD39-722AECA7F4A4                                
# 
lattice_vector      5.83791040      0.00000000      0.00000000
lattice_vector      0.00000000      5.95043914      0.00000000
lattice_vector      0.00000000      0.00000000      7.51811521
atom_frac       0.50114448      0.00041686      0.00028662 Pd
atom_frac       0.00041527      0.00047459      0.50137955 Pd
atom_frac       0.00052304      0.50114161      0.00031288 Pd
atom_frac       0.50125435      0.50119896      0.50135424 Pd
atom_frac       0.61287609      0.11862995      0.40371201 Se
atom_frac       0.89028424      0.88374085      0.90434194 Se
atom_frac       0.11215427      0.38305303      0.59875643 Se
atom_frac       0.38943198      0.61938653      0.09790317 Se
atom_frac       0.38949384      0.88375654      0.59876258 Se
atom_frac       0.11214840      0.11870506      0.09792952 Se
atom_frac       0.89021774      0.61930179      0.40372285 Se
atom_frac       0.61288631      0.38302425      0.90436821 Se
# 
# What follows is the current estimated Hessian matrix constructed by the BFGS algorithm.
# This is NOT the true Hessian matrix of the system.
# If you do not want this information here, switch it off using the "hessian_to_restart_geometry" keyword.
# 
trust_radius             0.0122098783
hessian_block                1       1           6.346377          -0.969954          -2.577858          -0.969954           8.862248          -0.185348          -2.577858          -0.185348           5.147762
hessian_block                1       2          -1.019843           2.915978           0.955738          -0.507385           2.547614           0.760923          -0.524867           1.413089           0.500960
hessian_block                1       3          -1.440681           4.103695           1.369289           0.032493          -0.462759          -0.047420          -1.023874           2.319346           0.858191
hessian_block                1       4           0.524693           0.222400          -0.062265           0.408442          -0.940098          -0.316893           0.046142           0.130753           0.038443
hessian_block                1       5           0.544709          -2.008282          -0.784593          -1.635781           3.317491           1.402153          -0.098226          -0.349118           0.017089
hessian_block                1       6          -0.056995          -4.192310          -0.906683           2.000681          -4.474233          -1.725293           4.073848          -7.533864          -3.173917
hessian_block                1       7          -1.142735           2.188810           0.901418           0.509598          -0.755695          -0.236161           0.029202           0.133183          -0.009765
hessian_block                1       8           0.404886          -2.208838          -0.296232          -0.046664          -2.768457           0.421035          -0.901652           3.157297           0.392972
hessian_block                1       9          -0.090454          -0.073811           0.153424           0.708539          -3.154101          -1.142025          -0.201875           0.271063           0.131148
hessian_block                1      10          -4.109109           5.404171           2.702644          -1.456471           3.744591           1.186089          -1.146541           4.665819           1.307305
hessian_block                1      11           1.184539          -3.241800          -1.167119           0.507427          -0.977143          -0.458248           0.238413          -0.284253           0.023669
hessian_block                1      12           0.420524          -2.140060          -0.287764           0.449074          -3.292435           0.341189           2.087287          -3.737967          -2.131992
hessian_block                2       2           8.421134           2.456238           3.598515           2.456238           8.813573           2.806036           3.598515           2.806036           5.631394
hessian_block                2       3           4.260157           3.716787           2.182567          -0.685668          -0.546008          -0.315865           2.276001           1.926493           1.204474
hessian_block                2       4           0.168784           0.518785           0.084593          -1.070296          -0.153701          -0.159191           0.160770           0.456489           0.195094
hessian_block                2       5          -3.542102          -1.097904          -1.647485           3.514933           2.337296           1.784337          -1.122675          -0.533682          -0.843235
hessian_block                2       6          -4.613212          -4.005380          -2.312736          -4.157543          -4.306758          -2.467169          -7.184634          -6.519945          -3.997636
hessian_block                2       7           1.858977           1.082510           0.770185          -1.428746          -2.646082          -1.429727          -0.179793          -0.916699          -0.437048
hessian_block                2       8          -1.763447          -1.788647          -1.013826          -0.695214          -0.952966          -0.540777           2.286821           2.081581           1.375213
hessian_block                2       9          -2.117402           0.248756          -1.032957          -2.111645          -3.367089          -1.338393          -0.727585           0.462213          -0.257986
hessian_block                2      10           4.905346           3.878195           2.470668           4.058132           4.019536           2.555678           4.966821           4.791529           2.905943
hessian_block                2      11          -3.221351          -3.198883          -1.772605          -1.333769          -3.327134          -1.663762          -0.610789          -1.363932          -0.843795
hessian_block                2      12          -1.771130          -1.303071          -0.802052          -1.462401          -0.771259          -0.644257          -4.419190          -3.951005          -2.331514
hessian_block                3       3          11.322175          -0.819382           5.360231          -0.819382           6.243240          -1.465003           5.360231          -1.465003           6.680473
hessian_block                3       4           0.231772          -0.220081          -0.087699          -1.246591           0.319686          -0.631539           0.293009          -0.105678           0.129152
hessian_block                3       5          -2.569833           0.220248          -1.551185           4.292484          -0.031786           2.925658          -0.499865           0.116144          -0.193414
hessian_block                3       6          -6.693487           1.049811          -4.140314          -5.558843          -1.376766          -2.670484         -10.601947           1.595653          -6.776172
hessian_block                3       7           2.846676          -0.132251           1.881562          -1.305495           0.100842          -0.766707          -0.021236          -0.019655           0.007227
hessian_block                3       8          -4.262503          -0.128102          -2.160671          -1.726626          -0.319044          -1.156136           2.455150          -0.525149           1.592666
hessian_block                3       9          -0.436902           0.370378           0.043939          -3.979845           0.169299          -2.462347           0.158850           0.180156           0.312113
hessian_block                3      10           6.790655          -0.010641           4.033628           6.470353          -2.413050           4.444288           6.941001           0.215145           3.792267
hessian_block                3      11          -4.327752           0.450450          -2.555195          -1.442804          -0.005658          -0.971223          -0.529601           0.118324          -0.268240
hessian_block                3      12          -4.154367          -0.127252          -2.076426          -2.503731          -0.030971          -1.492349          -7.107450           0.253348          -4.236873
hessian_block                4       4           5.892649           0.106005          -1.982181           0.106005           6.877133           1.424445          -1.982181           1.424445           4.867189
hessian_block                4       5          -0.398211           1.119939           0.191686           0.163723          -2.739945          -0.872815          -0.006932          -1.162891          -0.648762
hessian_block                4       6          -0.037800           1.260580          -0.164365          -0.186143           0.560050          -0.446661           0.390332           1.492847          -0.439464
hessian_block                4       7          -1.957025          -1.256370           0.815391          -0.269648          -0.086342           0.190010           0.839860           0.068042          -0.468146
hessian_block                4       8          -0.179295           0.325346          -0.208422           0.104378          -0.200263          -0.111333          -0.185799          -0.469685           0.177261
hessian_block                4       9          -0.280586           0.644250           0.124352           0.082594          -1.711284          -1.177301           0.101960          -0.765920          -0.435257
hessian_block                4      10          -0.462279          -1.471199           0.089111          -0.309383          -0.435082           0.455332          -0.032892          -0.806253           0.473177
hessian_block                4      11          -1.858081           0.462767           0.696469          -0.603582          -0.560394          -0.032200           0.882825           0.165402          -0.554160
hessian_block                4      12          -0.078710           0.717127          -0.061962           0.390953           0.717263           0.088957           0.058199           1.161634          -0.232661
hessian_block                5       5           6.133466          -2.422125          -0.889783          -2.422125           9.834542          -1.702307          -0.889783          -1.702307           7.717200
hessian_block                5       6           2.899858          -5.380297           0.563364           2.536915          -5.182057           1.258687           4.340625          -9.366334           1.831334
hessian_block                5       7          -1.594036           3.374038          -0.443384          -0.186813          -0.931823           0.527101           0.203584           0.591942          -1.079069
hessian_block                5       8           0.974096          -1.941815           0.700892           0.881782          -1.214587          -0.304790          -1.132801           3.400689          -1.357949
hessian_block                5       9          -1.266627          -0.469141           1.713343           1.343282          -5.157575           2.829436           1.413886           2.736361          -3.530489
hessian_block                5      10          -2.885152           6.055047          -0.453569          -2.150784           5.233316          -1.180601          -2.675190           6.042669          -1.684251
hessian_block                5      11           2.234495          -4.157498           0.749546           1.216457          -1.640707           0.049663          -0.284603          -0.880556           1.258431
hessian_block                5      12           1.035248          -1.393568          -0.212710           0.547284          -2.177141           0.452359           2.815858          -6.061798           1.614978
hessian_block                6       6          12.423273           7.055288          13.610481           7.055288          12.103296          12.994373          13.610481          12.994373          28.226329
hessian_block                6       7          -3.203801          -3.238847          -5.670132           1.911108           1.751957           3.409860          -0.120490          -0.327190          -0.809671
hessian_block                6       8           2.583137           2.835982           4.455939           1.636639           1.532776           2.735229          -3.988494          -4.087320          -7.574321
hessian_block                6       9           0.205733           0.296844           0.244543           4.840954           5.216898           8.188280          -0.566825          -0.911205          -1.918773
hessian_block                6      10          -9.338295          -8.415868         -15.363635          -7.814879          -8.221227         -13.895316         -10.197216         -10.073584         -17.527665
hessian_block                6      11           4.736512           4.734659           7.863199           1.310006           1.918342           2.719635           0.580728           1.139125           2.012858
hessian_block                6      12           2.660987           2.096876           3.841380           2.328480           2.124747           4.179582           7.642551           7.316721          13.248962
hessian_block                7       7           6.796681          -0.184900           1.230620          -0.184900           6.218636          -1.304139           1.230620          -1.304139           7.557336
hessian_block                7       8          -1.378122           0.597909          -0.274912          -0.641687           0.082171           0.634042           2.143463          -1.378738           1.074299
hessian_block                7       9           0.298591           0.587508          -0.186212          -2.669925           0.582236          -0.565986           0.701175          -0.465276           1.158806
hessian_block                7      10           3.742301          -2.218701           0.132555           3.327011          -2.053870           0.183583           3.507905          -2.698999           0.754631
hessian_block                7      11          -3.838482           1.475309          -1.913197          -0.311828          -1.495494           2.140839          -1.974686           2.334349          -3.468115
hessian_block                7      12          -0.863114           0.512872           0.260016          -1.536560           0.880487          -0.617962          -3.863517           1.818425          -1.178618
hessian_block                8       8           5.599529           0.498415          -2.515258           0.498415           5.843982           0.488920          -2.515258           0.488920           9.493606
hessian_block                8       9           0.301075          -0.439541          -0.253242           2.012149           1.183410          -2.954870          -0.373821           0.206345           1.422032
hessian_block                8      10          -2.755984          -1.744766           4.514637          -2.845020          -1.629081           4.306128          -3.247579          -1.665420           5.346033
hessian_block                8      11           2.042626           0.784585          -2.857616           0.787484           1.094876          -0.654497           0.681440          -0.413702          -1.476995
hessian_block                8      12          -0.000087           1.388699           0.434793           1.855137          -1.005792          -3.364355           4.252449          -0.293411          -7.362953
hessian_block                9       9           5.014889          -0.427199          -0.753108          -0.427199           9.427372          -2.022929          -0.753108          -2.022929           7.639955
hessian_block                9      10          -0.187271          -4.710074           0.698137          -0.387080          -4.633922           0.924091          -0.561667          -5.679275           1.457503
hessian_block                9      11          -0.082788           3.773505          -0.733786          -0.573329           1.833265           0.069745           0.418868           0.863861          -1.167333
hessian_block                9      12           0.207652           1.137666           0.282992           0.222367           1.258516          -0.684643           0.088715           5.461548          -1.709855
hessian_block               10      10          13.791382           7.653655          10.224278           7.653655          12.605375           9.588972          10.224278           9.588972          17.116634
hessian_block               10      11          -5.104839          -4.526242          -5.187861          -1.472805          -2.106963          -1.604260          -0.810423          -1.379480          -1.701437
hessian_block               10      12          -2.820845          -2.019292          -2.591058          -2.947015          -2.462599          -2.776344          -8.238032          -7.188763          -9.138277
hessian_block               11      11           8.332726           1.603057           1.566724           1.603057           6.845134          -1.112438           1.566724          -1.112438           7.640904
hessian_block               11      12           1.468305           0.313686          -0.158895           1.840094           0.068903           0.813302           5.311440           1.516746           1.646075
hessian_block               12      12           5.461449           0.816318           1.371688           0.816318           6.337304           3.704521           1.371688           3.704521          14.914592
hessian_block_lv             1       1          26.469631          -1.684916           6.670035          -1.684916          24.920941           3.553346           6.670035           3.553346           3.090257
hessian_block_lv_atom        1       1          -1.125449          -0.549520          -0.751853           2.863061           1.939416           1.958882           1.330741           0.856784           0.802156
hessian_block_lv_atom        1       2           2.853927           1.627416           1.862792           3.663305           2.182380           1.884567           1.972927           0.977683           1.027671
hessian_block_lv_atom        1       3           4.258741           2.474447           2.684232          -0.432525           0.082210          -0.175735           2.955924           1.763226           1.769579
hessian_block_lv_atom        1       4           0.131662           0.084752          -0.016206           0.307705           0.262862          -0.260724           0.378427           0.121100           0.076483
hessian_block_lv_atom        1       5          -1.993897          -1.140098          -0.913932           3.791666           2.847310           2.753660          -2.382713          -3.017903          -1.723582
hessian_block_lv_atom        1       6          -4.791918          -3.768107          -3.557722          -5.480882          -3.917050          -3.507651         -10.437171          -8.477491          -6.809403
hessian_block_lv_atom        1       7           1.934042           1.099458           1.730451          -1.436045          -1.494949          -1.141964           0.989262           2.301421           1.290788
hessian_block_lv_atom        1       8          -2.069942          -1.133674          -1.488875          -1.408617          -0.828498          -0.482119           4.424491           4.395151           3.149392
hessian_block_lv_atom        1       9           0.149885           0.223413          -0.258741          -4.315994          -3.245794          -2.668483           1.773252           2.875275           1.609504
hessian_block_lv_atom        1      10           5.073934           3.829593           3.787771           5.687394           3.673142           3.476783           7.772877           6.824066           5.113098
hessian_block_lv_atom        1      11          -3.065930          -1.882867          -2.398964          -1.991491          -0.524998          -0.541567          -2.038762          -2.739921          -1.682786
hessian_block_lv_atom        1      12          -1.355053          -0.864813          -0.678953          -1.247575          -0.976028          -1.295649          -6.739254          -5.879392          -4.622900
symmetry_n_params 39 3 36
symmetry_params a1 b2 c3 x0 x1 x2 x3 x4 x5 x6 x7 x8 x9 x10 x11 x12 x13 x14 x15 x16 x17 x18 x19 x20 x21 x22 x23 x24 x25 x26 x27 x28 x29 x30 x31 x32 x33 x34 x35
symmetry_lv a1 , 0 , 0 
symmetry_lv 0 , b2 , 0 
symmetry_lv 0 , 0 , c3
symmetry_frac x0 , x1 , x2
symmetry_frac x3 , x4 , x5
symmetry_frac x6 , x7 , x8
symmetry_frac x9 , x10 , x11
symmetry_frac x12 , x13 , x14
symmetry_frac x15 , x16 , x17
symmetry_frac x18 , x19 , x20
symmetry_frac x21 , x22 , x23
symmetry_frac x24 , x25 , x26
symmetry_frac x27 , x28 , x29
symmetry_frac x30 , x31 , x32
symmetry_frac x33 , x34 , x35
