# 
# This is the geometry file that corresponds to the current relaxation step.
# If you do not want this file to be written, set the "write_restart_geometry" flag to .false.
#  aims_uuid : 496428E2-AE90-4C17-AC82-5AAA987B7CFA                                
# 
lattice_vector      5.85324437      0.00000000      0.00000000
lattice_vector      0.00000000      5.95959400      0.00000000
lattice_vector      0.00000000      0.00000000      7.45700199
atom_frac       0.50230476      0.00237740      0.00206957 Pd
atom_frac       0.00236586      0.00238115      0.50275377 Pd
atom_frac       0.00250014      0.50236659      0.00214307 Pd
atom_frac       0.50242619      0.50238249      0.50267698 Pd
atom_frac       0.61460760      0.12069372      0.40522244 Se
atom_frac       0.89030587      0.88414348      0.90498345 Se
atom_frac       0.11454650      0.38416613      0.59981480 Se
atom_frac       0.39029485      0.62065874      0.09959275 Se
atom_frac       0.39031034      0.88420212      0.59981971 Se
atom_frac       0.11456130      0.12072467      0.09961096 Se
atom_frac       0.89020092      0.62065463      0.40522480 Se
atom_frac       0.61448486      0.38415809      0.90499685 Se
# 
# What follows is the current estimated Hessian matrix constructed by the BFGS algorithm.
# This is NOT the true Hessian matrix of the system.
# If you do not want this information here, switch it off using the "hessian_to_restart_geometry" keyword.
# 
trust_radius             0.0244197566
hessian_block                1       1           5.937328           0.117565          -2.168360           0.117565           6.240594          -1.147103          -2.168360          -1.147103           4.759153
hessian_block                1       2           0.019326           0.304916          -0.044035           0.364229           0.093599          -0.228113          -0.009681          -0.089188          -0.076726
hessian_block                1       3           0.010336           0.296193          -0.086833          -0.059847          -0.110837           0.117565          -0.125435          -0.002085          -0.045922
hessian_block                1       4           0.497749           0.211308          -0.082563           0.105605          -0.409660          -0.175540           0.075857          -0.024793          -0.027023
hessian_block                1       5          -0.076581          -0.324397          -0.140207          -0.309124           0.185414           0.265533          -0.237733           0.153393           0.221315
hessian_block                1       6          -1.835980           0.151833           0.722687           0.366877          -0.249152          -0.135801           1.204045          -0.103023          -0.361215
hessian_block                1       7          -0.330576           0.216325           0.198264           0.088420           0.191358           0.110642           0.103882           0.136237           0.045924
hessian_block                1       8          -0.203708          -0.479501           0.377751          -0.385561          -1.798117           0.813481           0.083221           0.782487          -0.506722
hessian_block                1       9          -0.125739           0.014757           0.194087          -0.449163          -0.338742          -0.073248          -0.020523          -0.081546           0.025503
hessian_block                1      10          -2.232135           0.641277           0.929214           0.112999          -0.585651          -0.485922           0.766312          -0.474965          -0.645856
hessian_block                1      11           0.018808          -0.425533          -0.131021           0.206002           0.294787           0.105223           0.068499           0.236618           0.207088
hessian_block                1      12          -0.112917          -0.724743           0.231013          -0.158000          -1.866567           0.833282           0.259916           0.613967          -0.493654
hessian_block                2       2           5.903762           0.222737           2.284958           0.222737           7.169789           1.914231           2.284958           1.914231           5.138658
hessian_block                2       3           0.675063           0.711107           0.443114          -0.422645          -0.473899          -0.316131           0.056858           0.008641           0.102102
hessian_block                2       4           0.229082           0.672145           0.211964          -0.429330           0.701631           0.432119           0.055511           0.487876           0.223269
hessian_block                2       5          -1.973125           0.161162          -0.924582           0.359836          -0.709563          -0.096919          -0.691039          -0.251990          -0.707448
hessian_block                2       6          -0.331277          -0.006054           0.078863          -0.128904          -0.856215          -0.435623          -0.071899          -0.310443          -0.354133
hessian_block                2       7          -0.117165          -0.739530          -0.369497          -0.427021          -1.582272          -0.773032          -0.324402          -1.361173          -0.786210
hessian_block                2       8          -0.241255          -0.661238          -0.412663           0.180837          -0.326094          -0.205425          -0.109152          -0.246458          -0.026483
hessian_block                2       9          -2.052639           0.310454          -1.012890           0.686915          -0.802726           0.207716          -1.151849          -0.119282          -0.647659
hessian_block                2      10           0.297509          -0.231780           0.026926           0.097026           0.940531           0.829131           0.134273           0.737449           0.570730
hessian_block                2      11          -0.427519          -0.621783          -0.192342          -0.415153          -3.164624          -1.715892          -0.106687          -0.932328          -0.581517
hessian_block                2      12          -0.415851          -0.181448          -0.124170          -0.029214           0.656866           0.249014          -0.032536           0.301593           0.247281
hessian_block                3       3           6.318709          -0.532456           2.241615          -0.532456           6.305479          -1.255833           2.241615          -1.255833           4.736570
hessian_block                3       4           0.383935          -0.290065          -0.016873          -0.171608           0.114096          -0.024567           0.200579          -0.150416           0.057228
hessian_block                3       5          -0.429340           0.130747          -0.198834          -0.343514           0.452688           0.125693           0.043424           0.114276           0.154127
hessian_block                3       6          -0.515815           0.460186          -0.362271           0.120741          -1.768442           0.834324          -0.589187           0.846832          -0.594956
hessian_block                3       7          -0.038573           0.131170           0.138083           0.211003          -0.129736           0.123570          -0.375451           0.172742          -0.147370
hessian_block                3       8          -2.229066          -0.169814          -0.874681          -0.567121          -0.330280          -0.401684          -1.018894          -0.149270          -0.530645
hessian_block                3       9          -0.337029           0.361269           0.099120           0.065292          -0.198532           0.015986          -0.528211           0.345760          -0.071731
hessian_block                3      10           0.245370           0.529454           0.020557           1.067561          -2.192911           1.059430           0.230140           0.641021          -0.368259
hessian_block                3      11          -0.257669           0.093056          -0.075742          -0.487416           0.253913          -0.256168           0.164871           0.056941           0.149155
hessian_block                3      12          -2.260013          -0.231053          -0.902400          -0.369778          -0.274514          -0.227309          -0.725170          -0.423486          -0.338437
hessian_block                4       4           5.957015           0.193387          -1.946435           0.193387           6.972827           1.557017          -1.946435           1.557017           4.903903
hessian_block                4       5          -0.484522           0.616748           0.211379           0.137024          -2.154376          -1.106830          -0.033843          -1.376793          -0.655793
hessian_block                4       6          -0.080562           0.317053           0.097471          -0.310010          -0.594582          -0.312632           0.199729          -0.461533          -0.138477
hessian_block                4       7          -1.974107          -0.839045           0.705057          -0.218665          -0.209178           0.307391           0.709753          -0.164980          -0.607271
hessian_block                4       8          -0.340401          -0.300139          -0.210035           0.036899          -0.543869          -0.137080          -0.211926          -0.036802          -0.007990
hessian_block                4       9          -0.299347           0.607706           0.132849           0.076094          -2.332240          -1.030113           0.030469          -0.815608          -0.547130
hessian_block                4      10          -0.357993          -0.284223          -0.135222          -0.053529           1.000787           0.425784           0.147347           0.683370           0.326278
hessian_block                4      11          -1.860573          -0.141172           0.848229          -0.865693          -1.362895          -0.236078           0.900889           0.017900          -0.524915
hessian_block                4      12          -0.104365           0.325019          -0.035242           0.411105           0.464482           0.219874           0.091492           0.365417           0.099786
hessian_block                5       5           5.352762          -0.230635          -1.131766          -0.230635           6.265678          -1.090985          -1.131766          -1.090985           7.604282
hessian_block                5       6           0.032283          -0.366570          -0.128303          -0.024908          -0.205185           0.653557          -0.080431          -0.478182           0.701884
hessian_block                5       7          -0.234450           1.118711          -0.079154          -1.003357           0.018531           0.421672           0.445345           0.677325          -0.872552
hessian_block                5       8           0.002028           0.028385           0.529517           0.502522           0.104719          -0.424397           0.453180           0.599968          -0.788669
hessian_block                5       9          -1.423275          -0.494522           1.734706          -0.573012          -1.912392           2.282428           1.807088           2.393625          -3.311771
hessian_block                5      10           0.087709           0.502687           0.179480           0.235914           0.067163          -0.731780           0.243745          -0.123221          -1.000856
hessian_block                5      11           0.332233          -0.894330           0.201392           1.025560           0.172782           0.032260          -0.586997          -0.250655           1.132503
hessian_block                5      12           0.380189           0.492050          -0.386682          -0.516343          -0.638435           0.218362          -0.097923          -0.915354           0.624842
hessian_block                6       6           5.556044           0.358503           1.801119           0.358503           5.839461           1.865347           1.801119           1.865347           8.652272
hessian_block                6       7          -0.000014          -0.134599          -0.057421           0.528428           0.272650           0.833052          -0.184462          -0.057864          -0.333920
hessian_block                6       8           0.052013           0.596259           0.352629          -0.063732           0.092748           0.257128          -0.179412          -0.300983          -0.810532
hessian_block                6       9           0.222362           0.284682           0.144485           0.308727           0.870599           0.261185          -0.124677          -0.260147          -0.721404
hessian_block                6      10          -1.828188          -1.257412          -2.799589          -1.053319          -2.172080          -3.140549          -2.121020          -2.573200          -4.416822
hessian_block                6      11           0.154577           0.308659          -0.135999          -0.805805           0.523793           0.168315          -0.187592           0.382959           0.687272
hessian_block                6      12           0.140465          -0.179887           0.032519           0.170748          -0.106571           0.261869           0.587598           0.340062           0.791893
hessian_block                7       7           5.434156           0.466304           1.238187           0.466304           6.134844          -1.537696           1.238187          -1.537696           7.750925
hessian_block                7       8          -0.163117          -0.007492           0.027035           0.165324          -0.451750           0.845011           0.375418          -0.654221           1.010190
hessian_block                7       9           0.293004           0.671805          -0.214580          -0.692830          -0.341065          -0.475520           0.446801          -0.554814           1.216601
hessian_block                7      10           0.218381          -0.637778           0.069319           0.126927          -0.443181          -0.367453          -0.390093          -0.926307           0.315416
hessian_block                7      11          -1.841762           0.506360          -1.859415           0.702338          -2.376036           2.891767          -1.587566           2.247584          -3.380312
hessian_block                7      12           0.320135          -0.178006           0.364787          -0.521093           0.562858          -0.758397          -0.618078           0.402158          -1.109553
hessian_block                8       8           5.075018          -0.039356          -0.976707          -0.039356           5.699161           1.435030          -0.976707           1.435030           7.192424
hessian_block                8       9           0.410697          -0.559736          -0.230423           0.357053           0.059412          -0.326940          -0.033736           0.479563           1.015445
hessian_block                8      10          -0.137253          -0.021711           0.377946          -0.923041          -0.354775           0.423211          -0.569831          -0.058703           0.704739
hessian_block                8      11           0.333009          -0.330429          -0.280898           0.604276           1.169299           0.673298           0.360577          -0.585264          -0.933168
hessian_block                8      12          -0.992055           1.082065           1.717648           0.994606          -1.673429          -2.199319           1.430144          -2.017659          -3.216726
hessian_block                9       9           5.127980          -0.394855          -0.807070          -0.394855           6.541494          -1.588945          -0.807070          -1.588945           7.587866
hessian_block                9      10          -0.179544           0.231952           0.153049          -0.398972          -0.225027           0.132548          -0.488319          -0.228348           0.592331
hessian_block                9      11          -0.078698           0.894875          -0.323380          -0.688697           0.480973           0.705295           0.409498           0.270521          -1.015565
hessian_block                9      12           0.008139          -0.511047           0.552040           0.286110          -0.154726          -0.636445           0.038535           0.685278          -1.020621
hessian_block               10      10           5.702984           0.613550           1.748384           0.613550           7.124440           2.534802           1.748384           2.534802           8.435967
hessian_block               10      11          -0.068518          -0.004322           0.360615           0.427574          -1.387121          -0.164844          -0.049777          -0.674560          -0.848874
hessian_block               10      12          -0.182412           0.179208          -0.061549          -0.513591          -0.125150          -0.047055          -0.520288          -0.004641          -0.562934
hessian_block               11      11           5.449907           0.239410           0.969486           0.239410           7.950151          -1.340387           0.969486          -1.340387           7.538575
hessian_block               11      12          -0.187885           0.057604          -0.355200           0.375211          -0.907996           0.570675           0.619074          -0.862788           0.671619
hessian_block               12      12           4.972481          -0.129761          -1.032765          -0.129761           5.710206           1.515451          -1.032765           1.515451           7.408367
hessian_block_lv             1       1          23.541914          -3.464296           4.913832          -3.464296          23.744418           2.486991           4.913832           2.486991           1.931242
hessian_block_lv_atom        1       1           0.317610           0.329786           0.066999          -0.528990          -0.382063          -0.160260          -0.099940          -0.121736           0.026317
hessian_block_lv_atom        1       2          -0.693919          -0.680758          -0.230727          -0.023133           0.017234          -0.006371          -0.093065          -0.192873          -0.109386
hessian_block_lv_atom        1       3          -0.824467          -0.700467          -0.259749           0.341955           0.479979           0.135240          -0.203823          -0.226244          -0.029329
hessian_block_lv_atom        1       4           0.076477           0.116211          -0.003949           0.791128           0.805234           0.269600           0.047569          -0.034420          -0.039887
hessian_block_lv_atom        1       5           0.308933           0.410980           0.377891          -0.080937           0.293532           0.266110          -2.012329          -2.708001          -1.503573
hessian_block_lv_atom        1       6           0.448722          -0.488716          -0.280552          -0.195856          -0.677723          -0.341638          -1.631771          -2.794059          -1.419393
hessian_block_lv_atom        1       7          -0.773765          -0.583460           0.105548          -0.643087          -1.100676          -0.538124           1.623916           2.338585           1.366987
hessian_block_lv_atom        1       8           0.164573          -0.024336          -0.238566           0.035585           0.147742           0.256841           1.626547           2.283047           1.366863
hessian_block_lv_atom        1       9           0.208700           0.100329          -0.206878          -0.388312          -0.739879          -0.391206           1.913565           2.683259           1.456981
hessian_block_lv_atom        1      10          -0.581547           0.445539           0.306396           0.191493           0.556920           0.353003           1.942227           3.165953           1.557932
hessian_block_lv_atom        1      11           0.878118           0.645711          -0.039966           0.341714           0.728524           0.399544          -1.774849          -2.448085          -1.455465
hessian_block_lv_atom        1      12           0.470566           0.429183           0.403553           0.158445          -0.128821          -0.242739          -1.338045          -1.945427          -1.218046
