# 
# This is the geometry file that corresponds to the current relaxation step.
# If you do not want this file to be written, set the "write_restart_geometry" flag to .false.
#  aims_uuid : 276CC327-C7E9-4F5F-A14F-82927B2B375B                                
# 
lattice_vector      5.85491614      0.00000000      0.00000000
lattice_vector      0.00000000      5.95922820      0.00000000
lattice_vector      0.00000000      0.00000000      7.43166037
atom_frac       0.50241988      0.00207594      0.00191382 Pd
atom_frac       0.00206396      0.00208647      0.50266467 Pd
atom_frac       0.00215025      0.50244795      0.00196064 Pd
atom_frac       0.50250592      0.50245821      0.50261764 Pd
atom_frac       0.61429280      0.12007423      0.40433111 Se
atom_frac       0.89104458      0.88488891      0.90453830 Se
atom_frac       0.11390884      0.38454200      0.60074460 Se
atom_frac       0.39062370      0.62041253      0.10024313 Se
atom_frac       0.39066900      0.88490891      0.60074485 Se
atom_frac       0.11394219      0.12007979      0.10026164 Se
atom_frac       0.89101420      0.62040978      0.40433336 Se
atom_frac       0.61427387      0.38452449      0.90455540 Se
# 
# What follows is the current estimated Hessian matrix constructed by the BFGS algorithm.
# This is NOT the true Hessian matrix of the system.
# If you do not want this information here, switch it off using the "hessian_to_restart_geometry" keyword.
# 
trust_radius             0.0122098783
hessian_block                1       1           5.957533           0.056864          -2.200542           0.056864           6.411523          -1.060447          -2.200542          -1.060447           4.801615
hessian_block                1       2          -0.037056           0.472498           0.044189           0.323690           0.232901          -0.148175          -0.019201          -0.041193          -0.044545
hessian_block                1       3          -0.060712           0.516268           0.032150          -0.051780          -0.141471           0.099101          -0.172500           0.141081           0.030599
hessian_block                1       4           0.506507           0.196018          -0.086843           0.131576          -0.467213          -0.198946           0.081084          -0.033184          -0.028933
hessian_block                1       5          -0.031563          -0.430844          -0.186645          -0.345732           0.322500           0.347626          -0.301636           0.322289           0.302847
hessian_block                1       6          -1.767824          -0.081515           0.589042           0.415653          -0.436069          -0.248922           1.242734          -0.255496          -0.454638
hessian_block                1       7          -0.366432           0.346793           0.275335           0.089136           0.168998           0.091771           0.171058          -0.062657          -0.058514
hessian_block                1       8          -0.210976          -0.518893           0.335607          -0.350245          -1.879703           0.778736           0.106842           0.723310          -0.534004
hessian_block                1       9          -0.138180           0.018284           0.184205          -0.422825          -0.456212          -0.148842           0.053807          -0.286553          -0.076837
hessian_block                1      10          -2.302898           0.886466           1.070529           0.075903          -0.415239          -0.375097           0.758129          -0.419284          -0.605538
hessian_block                1      11           0.069423          -0.604724          -0.235446           0.228393           0.219882           0.062857           0.015330           0.386819           0.283414
hessian_block                1      12          -0.051911          -0.857216           0.178417          -0.150633          -1.912873           0.800338           0.264894           0.585314          -0.513602
hessian_block                2       2           6.060808           0.338614           2.314575           0.338614           7.224264           1.903591           2.314575           1.903591           5.110214
hessian_block                2       3           0.874362           0.843479           0.465324          -0.446162          -0.480272          -0.309067           0.188468           0.100344           0.121261
hessian_block                2       4           0.206378           0.637676           0.189128          -0.498579           0.618141           0.385133           0.042077           0.466179           0.208394
hessian_block                2       5          -2.094211           0.026695          -0.994674           0.466256          -0.677678          -0.125692          -0.516356          -0.088398          -0.638162
hessian_block                2       6          -0.525963          -0.098954           0.095297          -0.271368          -0.892159          -0.390045          -0.185563          -0.332494          -0.310829
hessian_block                2       7          -0.013530          -0.702473          -0.391227          -0.432201          -1.552726          -0.739063          -0.511393          -1.500417          -0.822806
hessian_block                2       8          -0.230611          -0.552782          -0.305296           0.086148          -0.434528          -0.263673          -0.173211          -0.311921          -0.057621
hessian_block                2       9          -2.023252           0.387309          -0.949567           0.607384          -0.796778           0.260404          -1.356381          -0.296455          -0.713731
hessian_block                2      10           0.500101          -0.139795           0.004915           0.209822           0.924544           0.746497           0.162002           0.706188           0.521793
hessian_block                2      11          -0.573027          -0.681729          -0.170123          -0.478836          -3.197835          -1.713473           0.040177          -0.811048          -0.540294
hessian_block                2      12          -0.578087          -0.381730          -0.239151          -0.053577           0.679148           0.286581          -0.048583           0.312608           0.268191
hessian_block                3       3           6.564682          -0.557105           2.406076          -0.557105           6.305115          -1.273628           2.406076          -1.273628           4.845922
hessian_block                3       4           0.346739          -0.280395          -0.038987          -0.274817           0.135930          -0.088244           0.177954          -0.144234           0.043916
hessian_block                3       5          -0.604356           0.164848          -0.308170          -0.230531           0.453257           0.206751           0.281526           0.075837           0.306564
hessian_block                3       6          -0.738866           0.471380          -0.516582          -0.027319          -1.771588           0.726987          -0.704180           0.841976          -0.679439
hessian_block                3       7           0.074296           0.129598           0.218066           0.220219          -0.140769           0.125043          -0.613353           0.201194          -0.304296
hessian_block                3       8          -2.167954          -0.207010          -0.848233          -0.705536          -0.302452          -0.487756          -1.108798          -0.133238          -0.587499
hessian_block                3       9          -0.273628           0.337343           0.133360          -0.005053          -0.209495          -0.039403          -0.800197           0.385681          -0.247711
hessian_block                3      10           0.475261           0.519465           0.180318           1.163756          -2.174691           1.136670           0.240856           0.655172          -0.354033
hessian_block                3      11          -0.419888           0.098065          -0.189421          -0.561713           0.258574          -0.307136           0.357360           0.030377           0.274482
hessian_block                3      12          -2.504026          -0.178243          -1.052398          -0.381645          -0.285113          -0.240711          -0.734720          -0.429171          -0.347903
hessian_block                4       4           5.950181           0.184900          -1.951222           0.184900           6.969539           1.550636          -1.951222           1.550636           4.900576
hessian_block                4       5          -0.492783           0.623027           0.204598           0.095008          -2.249996          -1.133648          -0.039281          -1.417586          -0.657555
hessian_block                4       6          -0.023437           0.455888           0.133402          -0.249914          -0.459538          -0.274171           0.251460          -0.346870          -0.105274
hessian_block                4       7          -2.011594          -0.925891           0.681222          -0.198862          -0.172054           0.320508           0.736060          -0.083855          -0.591758
hessian_block                4       8          -0.284493          -0.199792          -0.172733           0.028566          -0.542384          -0.143629          -0.213056          -0.027555          -0.009422
hessian_block                4       9          -0.272091           0.652353           0.151291           0.124497          -2.229690          -0.998761           0.045044          -0.752837          -0.539607
hessian_block                4      10          -0.420115          -0.433590          -0.174392          -0.126490           0.847459           0.378450           0.113804           0.617140           0.304261
hessian_block                4      11          -1.812460          -0.027501           0.878687          -0.848619          -1.320429          -0.225397           0.887032          -0.033374          -0.532572
hessian_block                4      12          -0.126921           0.312427          -0.051969           0.437616           0.517259           0.237249           0.106863           0.396357           0.109840
hessian_block                5       5           5.380497          -0.380515          -1.215981          -0.380515           6.267687          -0.920450          -1.215981          -0.920450           7.759769
hessian_block                5       6           0.256199          -0.422210          -0.401616           0.185539          -0.197742           0.417724           0.097110          -0.462283           0.506315
hessian_block                5       7          -0.371672           1.129697           0.080199          -0.950835           0.065179           0.378589           0.587670           0.548702          -1.079121
hessian_block                5       8           0.140134           0.186822           0.428834           0.519439          -0.017419          -0.486584           0.476106           0.529206          -0.839569
hessian_block                5       9          -1.365694          -0.391675           1.705685          -0.417695          -1.869133           2.121677           1.926598           2.215556          -3.509904
hessian_block                5      10          -0.152118           0.553539           0.469135           0.004652          -0.005540          -0.495347           0.147144          -0.182177          -0.912164
hessian_block                5      11           0.513387          -0.921653          -0.013494           1.094698           0.150338          -0.053984          -0.681448          -0.131720           1.281414
hessian_block                5      12           0.388091           0.260993          -0.477016          -0.439009          -0.594428           0.146235          -0.052310          -0.891872           0.581429
hessian_block                6       6           5.714379           0.421962           1.840910           0.421962           5.814469           1.830633           1.840910           1.830633           8.611373
hessian_block                6       7          -0.064023          -0.140744          -0.053906           0.480269           0.202954           0.770318           0.049426           0.114599          -0.196050
hessian_block                6       8          -0.125739           0.362305           0.144483           0.116737           0.264632           0.402502          -0.070235          -0.202301          -0.727913
hessian_block                6       9           0.095686           0.135016           0.013291           0.301601           0.798647           0.189975           0.171827          -0.016063          -0.521055
hessian_block                6      10          -1.985284          -1.312996          -2.831655          -1.030862          -2.053198          -3.024509          -2.070794          -2.483040          -4.333841
hessian_block                6      11           0.257397           0.334935          -0.125163          -0.749395           0.550845           0.186956          -0.390782           0.220935           0.555244
hessian_block                6      12           0.473384           0.146932           0.310479           0.135098          -0.174229           0.199290           0.570106           0.303662           0.757970
hessian_block                7       7           5.452484           0.505271           1.113176           0.505271           6.099129          -1.530161           1.113176          -1.530161           7.973518
hessian_block                7       8          -0.028304          -0.116039           0.018485           0.053849          -0.407149           0.956175           0.310031          -0.632538           1.085717
hessian_block                7       9           0.382478           0.611500          -0.247310          -0.663216          -0.407951          -0.378176           0.278476          -0.519828           1.459056
hessian_block                7      10           0.279034          -0.582621          -0.174259           0.075335          -0.340198          -0.505822          -0.437493          -0.871597           0.280280
hessian_block                7      11          -1.877551           0.460162          -1.684218           0.677814          -2.388753           2.968157          -1.474244           2.228849          -3.554650
hessian_block                7      12           0.110725          -0.085998           0.554656          -0.486032           0.520365          -0.727739          -0.599636           0.378107          -1.089509
hessian_block                8       8           4.749533           0.079281          -0.922045           0.079281           5.708312           1.451034          -0.922045           1.451034           7.207881
hessian_block                8       9           0.233793          -0.508873          -0.210051           0.142096           0.187704          -0.256593           0.037545           0.570243           1.083473
hessian_block                8      10           0.062919          -0.215336           0.261586          -0.593691          -0.546113           0.319012          -0.400245          -0.139714           0.663094
hessian_block                8      11           0.169392          -0.183753          -0.193734           0.555286           1.224822           0.707355           0.328650          -0.657759          -0.985498
hessian_block                8      12          -0.741783           1.079724           1.736566           0.862416          -1.608697          -2.165770           1.354947          -1.979573          -3.196775
hessian_block                9       9           5.035371          -0.524666          -0.798650          -0.524666           6.447136          -1.430668          -0.798650          -1.430668           7.832019
hessian_block                9      10          -0.039387           0.249133          -0.159463          -0.201438          -0.075473          -0.098322          -0.391158          -0.134649           0.512444
hessian_block                9      11          -0.190248           0.869785          -0.093743          -0.725113           0.484523           0.799894           0.414012           0.169241          -1.195905
hessian_block                9      12           0.121063          -0.261039           0.695138           0.209962          -0.226251          -0.570644          -0.005110           0.645794          -0.980378
hessian_block               10      10           5.857771           0.575189           1.688303           0.575189           6.888187           2.389325           1.688303           2.389325           8.354642
hessian_block               10      11          -0.168348           0.042803           0.413971           0.370955          -1.388803          -0.153121           0.163616          -0.527775          -0.801411
hessian_block               10      12          -0.541025          -0.194979          -0.224516          -0.470410          -0.013910           0.015755          -0.498632           0.056920          -0.527667
hessian_block               11      11           5.512254           0.277357           0.813672           0.277357           7.969856          -1.405676           0.813672          -1.405676           7.670540
hessian_block               11      12           0.085579           0.159172          -0.473374           0.336255          -0.915994           0.531133           0.599011          -0.866430           0.647098
hessian_block               12      12           4.930822          -0.000041          -0.956831          -0.000041           5.661747           1.488284          -0.956831           1.488284           7.393170
hessian_block_lv             1       1          23.514019          -3.500986           4.910272          -3.500986          23.885944           2.490603           4.910272           2.490603           1.931150
hessian_block_lv_atom        1       1           0.260139           0.416386           0.066753          -0.403097          -0.591002          -0.160562          -0.049430          -0.214726           0.025795
hessian_block_lv_atom        1       2          -0.540911          -0.914347          -0.230205           0.163863          -0.235049          -0.004282           0.013393          -0.320634          -0.107503
hessian_block_lv_atom        1       3          -0.595229          -1.034725          -0.258280           0.292819           0.543245           0.134559          -0.062686          -0.435926          -0.028594
hessian_block_lv_atom        1       4           0.096669           0.104340          -0.003052           0.801027           0.824780           0.271149           0.062625          -0.044798          -0.039285
hessian_block_lv_atom        1       5           0.298727           0.474837           0.379966           0.134131           0.015096           0.269025          -1.925016          -2.878424          -1.504898
hessian_block_lv_atom        1       6           0.137837          -0.068400          -0.283987          -0.499864          -0.287618          -0.345911          -1.890148          -2.465744          -1.423166
hessian_block_lv_atom        1       7          -0.578672          -0.839134           0.108057          -0.727825          -1.007010          -0.539974           1.444770           2.613438           1.366435
hessian_block_lv_atom        1       8          -0.065324           0.219004          -0.244055           0.035439           0.189226           0.258644           1.607595           2.331449           1.367649
hessian_block_lv_atom        1       9           0.105566           0.198752          -0.209810          -0.620155          -0.455084          -0.395020           1.777004           2.919832           1.457743
hessian_block_lv_atom        1      10          -0.246841          -0.003923           0.310228           0.538341           0.133552           0.358827           2.092768           2.991465           1.560865
hessian_block_lv_atom        1      11           0.623102           0.984298          -0.043054           0.246764           0.858738           0.398576          -1.662608          -2.633255          -1.455686
hessian_block_lv_atom        1      12           0.504939           0.462914           0.407438           0.038560           0.011129          -0.245031          -1.408265          -1.862678          -1.219355
symmetry_n_params 39 3 36
symmetry_params a1 b2 c3 x0 x1 x2 x3 x4 x5 x6 x7 x8 x9 x10 x11 x12 x13 x14 x15 x16 x17 x18 x19 x20 x21 x22 x23 x24 x25 x26 x27 x28 x29 x30 x31 x32 x33 x34 x35
symmetry_lv a1 , 0 , 0 
symmetry_lv 0 , b2 , 0 
symmetry_lv 0 , 0 , c3
symmetry_frac x0 , x1 , x2
symmetry_frac x3 , x4 , x5
symmetry_frac x6 , x7 , x8
symmetry_frac x9 , x10 , x11
symmetry_frac x12 , x13 , x14
symmetry_frac x15 , x16 , x17
symmetry_frac x18 , x19 , x20
symmetry_frac x21 , x22 , x23
symmetry_frac x24 , x25 , x26
symmetry_frac x27 , x28 , x29
symmetry_frac x30 , x31 , x32
symmetry_frac x33 , x34 , x35
