# 
# This is the geometry file that corresponds to the current relaxation step.
# If you do not want this file to be written, set the "write_restart_geometry" flag to .false.
#  aims_uuid : 8473E34F-4ADF-405B-A646-B79AA52F27D5                                
# 
lattice_vector      3.28797780      0.00000000      0.00000000
lattice_vector     -1.64398890      2.84747231      0.00000000
lattice_vector      0.00000000      0.00000000     13.23026959
atom_frac       0.32968420      0.66514075      0.25292335 W
atom_frac       0.67613646      0.34068877      0.75288465 W
atom_frac       0.34269106      0.67388260      0.88044236 Se
atom_frac       0.66309323      0.33190691      0.38048250 Se
atom_frac       0.66314165      0.33187541      0.12536281 Se
atom_frac       0.34267525      0.67392742      0.62532618 Se
# 
# What follows is the current estimated Hessian matrix constructed by the BFGS algorithm.
# This is NOT the true Hessian matrix of the system.
# If you do not want this information here, switch it off using the "hessian_to_restart_geometry" keyword.
# 
trust_radius             0.0011974019
hessian_block                1       1         429.906143         177.863193         -20.185555         177.863193          91.628840          -2.381728         -20.185555          -2.381728         215.730218
hessian_block                1       2        -437.691653        -192.809652          14.318963        -162.865062         -71.987229           7.745745         -39.928746          -9.165008          15.117385
hessian_block                1       3          -4.482475          -1.969287           0.535474           8.393430           3.709342          -1.213505          90.132325          25.685030         -18.340268
hessian_block                1       4           9.326317           9.419155           2.417845         -16.165855         -13.176896          -1.504671          30.366907           9.130602        -113.509692
hessian_block                1       5           7.283270           8.622014           2.364784         -14.484564         -12.477522          -1.469127         -29.336161          -9.423842         -88.444639
hessian_block                1       6          -3.482369          -1.555039           0.548490           6.829241           3.162697          -1.176713         -31.048770         -13.845053           3.894986
hessian_block                2       2         468.505130         162.337002          40.655485         162.337002          75.087986           6.929877          40.655485           6.929877         255.604731
hessian_block                2       3          -0.429247           5.090656          -1.619551          -4.540174          -8.430795           3.512245         -78.301168         -34.591253        -119.001744
hessian_block                2       4         -14.869222          -5.095622           1.671511          19.685652           7.317335          -2.427955         -14.350672         -23.698639          15.915884
hessian_block                2       5         -13.597886          -4.995723           0.106691          18.575281           7.263057          -1.172281          19.246493          18.560462         -13.638930
hessian_block                2       6          -1.057888           5.099134          -0.885390          -3.677725          -8.391122           2.323122          18.430900          25.053808        -139.549336
hessian_block                3       3           3.512208          -2.486149          -2.258293          -2.486149           3.864759           3.071261          -2.258293           3.071261         173.621293
hessian_block                3       4           0.023125          -0.024035          -3.878555           0.348570          -0.357122           1.411755          -5.720390           7.441763          32.515147
hessian_block                3       5           0.226983           0.089135          -2.873004           0.195424          -0.470440           0.550694           3.369739          -4.990201         -22.225861
hessian_block                3       6           2.008639          -1.861823          -2.821305          -1.608829           2.543489           3.872513           5.693022          -7.821562         -32.120576
hessian_block                4       4           3.846019          -2.726713          -2.377375          -2.726713           4.441395          -0.087465          -2.377375          -0.087465         167.281694
hessian_block                4       5           2.576238          -1.787208          -1.944825          -2.119173           2.824165          -0.497242           1.733295           0.394850         -40.422566
hessian_block                4       6          -0.043245           0.215938          -5.973645           0.116773          -0.189645           7.710981           0.433279           2.213485         -47.332477
hessian_block                5       5           4.309873          -2.742166           1.417973          -2.742166           4.149317           0.706398           1.417973           0.706398         137.033483
hessian_block                5       6           0.060756           0.145581           3.568662           0.384332          -0.429345          -5.247667           0.928382           1.881558          42.146504
hessian_block                6       6           3.373340          -2.473408           5.563188          -2.473408           4.163159          -7.482236           5.563188          -7.482236         187.408888
hessian_block_lv             1       1          60.029752           5.593132           0.000000           5.593132           1.833367           0.000000           0.000000           0.000000           0.000000
hessian_block_lv_atom        1       1          17.303614           4.079123           0.000000           5.893342           0.879458           0.000000          -3.993618          -1.810414           0.000000
hessian_block_lv_atom        1       2         -11.114880          -2.229569           0.000000         -11.460452          -2.713492           0.000000           8.539749           1.164869           0.000000
hessian_block_lv_atom        1       3          -2.329364          -0.536593           0.000000           3.217741           0.837273           0.000000          26.086145          10.125663           0.000000
hessian_block_lv_atom        1       4          -0.843267          -0.410339           0.000000          -0.423802           0.085109           0.000000          36.720595          11.501605           0.000000
hessian_block_lv_atom        1       5          -0.496181          -0.301926           0.000000          -0.719495          -0.011491           0.000000         -30.624950          -9.253082           0.000000
hessian_block_lv_atom        1       6          -2.519921          -0.600695           0.000000           3.492665           0.923143           0.000000         -36.727920         -11.728641           0.000000
