# 
# This is the geometry file that corresponds to the current relaxation step.
# If you do not want this file to be written, set the "write_restart_geometry" flag to .false.
#  aims_uuid : 4A17F514-FC34-400B-A0BC-AA31A1B3E878                                
# 
lattice_vector      5.84530862      0.00000000      0.00000000
lattice_vector      0.00000000      5.95358318      0.00000000
lattice_vector      0.00000000      0.00000000      7.51104778
atom_frac       0.50213361      0.00219617      0.00210091 Pd
atom_frac       0.00211941      0.00217579      0.50224172 Pd
atom_frac       0.00224514      0.50214970      0.00206831 Pd
atom_frac       0.50221351      0.50218680      0.50226009 Pd
atom_frac       0.61429461      0.12056052      0.40547619 Se
atom_frac       0.88995200      0.88376720      0.90545304 Se
atom_frac       0.11437195      0.38381475      0.59890793 Se
atom_frac       0.39009495      0.62055809      0.09886613 Se
atom_frac       0.39002641      0.88382587      0.59891752 Se
atom_frac       0.11430291      0.12048209      0.09886636 Se
atom_frac       0.89002075      0.62056263      0.40548182 Se
atom_frac       0.61430540      0.38380104      0.90544060 Se
# 
# What follows is the current estimated Hessian matrix constructed by the BFGS algorithm.
# This is NOT the true Hessian matrix of the system.
# If you do not want this information here, switch it off using the "hessian_to_restart_geometry" keyword.
# 
trust_radius             0.0488393352
hessian_block                1       1           5.992123           0.044200          -2.120478           0.044200           6.552231          -1.279633          -2.120478          -1.279633           4.672549
hessian_block                1       2          -0.076194           0.573984          -0.132184           0.241367           0.204025          -0.346606          -0.166143           0.142740          -0.073778
hessian_block                1       3          -0.132657           0.667518          -0.223515          -0.033204          -0.047694           0.122034          -0.165990           0.047799          -0.138185
hessian_block                1       4           0.514708           0.156191          -0.042422           0.086697          -0.520084          -0.175025           0.006445           0.043584          -0.024105
hessian_block                1       5          -0.001493          -0.529297          -0.043703          -0.376988           0.381149           0.167167          -0.164418           0.078968           0.230428
hessian_block                1       6          -1.772346           0.022149           0.803089           0.522953          -0.568172          -0.015341           1.553599          -0.503990          -0.306697
hessian_block                1       7          -0.332637           0.223144           0.058387           0.142342           0.123903           0.138488           0.055639           0.203899           0.118064
hessian_block                1       8          -0.200826          -0.306886           0.287546          -0.311557          -1.981926           0.876977          -0.009014           0.877985          -0.528549
hessian_block                1       9          -0.159014           0.146204           0.137544          -0.386064          -0.357922           0.046485          -0.088612           0.013728           0.109027
hessian_block                1      10          -2.344224           0.733898           0.851994          -0.099109          -0.263758          -0.563886           0.518346          -0.188257          -0.715847
hessian_block                1      11           0.057315          -0.569006           0.014990           0.302810           0.168446           0.170164           0.151686           0.121468           0.238956
hessian_block                1      12           0.021153          -1.162098           0.408749          -0.133446          -2.043176           0.859175           0.428936           0.441709          -0.479999
hessian_block                2       2           6.158253           0.400700           2.545110           0.400700           7.401202           2.245619           2.545110           2.245619           5.429509
hessian_block                2       3           1.027155           0.968741           0.823625          -0.406387          -0.547175          -0.396827           0.143878           0.057177           0.267883
hessian_block                2       4           0.185258           0.631594           0.157806          -0.495609           0.741074           0.451909           0.150897           0.651425           0.352347
hessian_block                2       5          -2.154519           0.049584          -1.137047           0.574676          -0.628676           0.099782          -0.784613          -0.370762          -0.817863
hessian_block                2       6          -0.526428          -0.092405          -0.129543          -0.476544          -1.104498          -0.794429          -0.677236          -0.967795          -1.089745
hessian_block                2       7          -0.080535          -0.757486          -0.245968          -0.507685          -1.647408          -0.842885          -0.224509          -1.258162          -0.755151
hessian_block                2       8          -0.189037          -0.720878          -0.435075           0.011954          -0.421599          -0.368986           0.079147          -0.043962           0.211029
hessian_block                2       9          -1.958829           0.355310          -0.927439           0.568215          -0.895363          -0.016557          -1.022344           0.016691          -0.590833
hessian_block                2      10           0.505513          -0.050369           0.329203           0.469183           1.313231           1.264481           0.535087           1.163371           1.069527
hessian_block                2      11          -0.585084          -0.674791          -0.394099          -0.556685          -3.370993          -1.976547          -0.232631          -1.069939          -0.721681
hessian_block                2      12          -0.739643          -0.351365          -0.420432          -0.155801           0.603206           0.191700          -0.380600          -0.077060          -0.179379
hessian_block                3       3           6.806098          -0.517541           2.343929          -0.517541           6.357511          -1.271495           2.343929          -1.271495           4.730547
hessian_block                3       4           0.308285          -0.302495          -0.021522          -0.252432           0.051846          -0.053395           0.357348          -0.202435           0.134074
hessian_block                3       5          -0.680054           0.100396          -0.241041          -0.077576           0.452147           0.169029          -0.081584           0.161653           0.123427
hessian_block                3       6          -0.721423           0.510590          -0.402335          -0.329792          -1.726139           0.742085          -1.367332           1.121029          -0.930081
hessian_block                3       7           0.006434           0.142197           0.072446           0.116715          -0.097844           0.118665          -0.250079           0.114425          -0.043777
hessian_block                3       8          -2.119626          -0.038174          -0.921646          -0.804260          -0.345407          -0.455762          -0.773294          -0.244650          -0.413791
hessian_block                3       9          -0.190998           0.402403           0.117603          -0.082667          -0.125229           0.009027          -0.369438           0.273695           0.049760
hessian_block                3      10           0.467289           0.411152           0.089509           1.553913          -2.293353           1.202593           0.735129           0.470375          -0.201612
hessian_block                3      11          -0.471340           0.069193          -0.069721          -0.709340           0.284752          -0.318165          -0.010328           0.093096           0.113308
hessian_block                3      12          -2.733253          -0.338129          -0.945108          -0.533282          -0.316392          -0.247557          -1.184461          -0.240905          -0.589689
hessian_block                4       4           5.981189           0.185345          -1.963136           0.185345           7.054122           1.600156          -1.963136           1.600156           4.959386
hessian_block                4       5          -0.434617           0.666209           0.127462           0.109541          -2.267746          -1.049265           0.013240          -1.384397          -0.723547
hessian_block                4       6          -0.080769           0.428480           0.018800          -0.230255          -0.495096          -0.463955           0.256965          -0.399092          -0.454189
hessian_block                4       7          -1.978535          -0.855426           0.757589          -0.162179          -0.183723           0.269426           0.712221          -0.190063          -0.617980
hessian_block                4       8          -0.431710          -0.342387          -0.245187           0.078084          -0.486783          -0.191346          -0.190905          -0.048585           0.077367
hessian_block                4       9          -0.340207           0.584700           0.155624           0.066213          -2.313892          -1.119013           0.024746          -0.850372          -0.539951
hessian_block                4      10          -0.365696          -0.348745           0.002099          -0.153764           0.951438           0.638692           0.057605           0.640349           0.572514
hessian_block                4      11          -1.847242          -0.078216           0.778457          -0.835952          -1.410608          -0.374125           0.964012           0.014203          -0.598873
hessian_block                4      12           0.055247           0.421383          -0.146396           0.457679           0.526475           0.196854           0.031390           0.394315          -0.035180
hessian_block                5       5           5.529680          -0.360404          -0.977545          -0.360404           6.419712          -1.097071          -0.977545          -1.097071           7.783792
hessian_block                5       6           0.104371          -0.497407          -0.238612           0.178336          -0.434312           0.671647           0.431624          -0.860620           0.956894
hessian_block                5       7          -0.198977           1.123837          -0.072822          -0.932668          -0.003026           0.371055           0.264263           0.739427          -1.018022
hessian_block                5       8          -0.135985           0.058077           0.382790           0.652683          -0.004328          -0.326186           0.245479           0.691421          -0.999576
hessian_block                5       9          -1.558458          -0.444101           1.606516          -0.534327          -1.937735           2.306440           1.614676           2.476913          -3.455303
hessian_block                5      10           0.000013           0.632589           0.258134           0.017354           0.331089          -0.783472          -0.117471           0.083454          -1.192289
hessian_block                5      11           0.384530          -1.007029           0.215635           1.118435           0.083268           0.196884          -0.391172          -0.278242           1.330429
hessian_block                5      12           0.711422           0.264787          -0.156722          -0.426301          -0.744518           0.175241           0.224475          -1.141993           0.883493
hessian_block                6       6           5.671884           0.521248           2.159941           0.521248           6.217255           2.468658           2.159941           2.468658          10.610509
hessian_block                6       7           0.015916          -0.215378          -0.116947           0.482868           0.311464           0.798307          -0.186853          -0.088786          -0.642272
hessian_block                6       8           0.165883           0.545388           0.563700           0.024252           0.265810           0.648195          -0.272813          -0.470500          -1.601745
hessian_block                6       9           0.229652           0.192874          -0.044048           0.362338           0.996679           0.660163          -0.155703          -0.316646          -1.110308
hessian_block                6      10          -1.961360          -1.445545          -3.418665          -1.275224          -2.614743          -4.015019          -2.202746          -2.900085          -5.549610
hessian_block                6      11           0.257021           0.544768           0.154204          -0.691257           0.757677           0.810003          -0.299543           0.444382           0.969309
hessian_block                6      12           0.183508           0.191948           0.504193           0.204363           0.041099           0.240161           0.906315           0.722968           2.249798
hessian_block                7       7           5.368003           0.422805           1.255546           0.422805           6.144296          -1.471618           1.255546          -1.471618           7.855891
hessian_block                7       8          -0.167136          -0.129315           0.078060           0.158466          -0.408216           0.737290           0.310277          -0.589054           1.227766
hessian_block                7       9           0.266474           0.617466          -0.120744          -0.627716          -0.350218          -0.530903           0.487540          -0.479363           1.337705
hessian_block                7      10           0.203777          -0.617091           0.114613           0.266047          -0.511053          -0.299138          -0.361270          -0.878101           0.546044
hessian_block                7      11          -1.816300           0.557104          -1.893297           0.699192          -2.312599           2.740774          -1.580222           2.229039          -3.519272
hessian_block                7      12           0.279430           0.009638           0.195141          -0.579680           0.581445          -0.697145          -0.564557           0.336041          -1.387131
hessian_block                8       8           5.520248          -0.121399          -1.074748          -0.121399           5.799049           1.284026          -1.074748           1.284026           7.582536
hessian_block                8       9           0.594830          -0.655760          -0.151398           0.500384           0.079870          -0.424562          -0.001125           0.369774           1.284103
hessian_block                8      10          -0.315540          -0.123915           0.548719          -0.930534          -0.542931           0.704043          -0.537274          -0.339818           1.216770
hessian_block                8      11           0.336922          -0.251645          -0.299422           0.656889           1.258920           0.412949           0.143165          -0.448476          -1.120761
hessian_block                8      12          -1.492110           1.343095           1.587974           0.828836          -1.565439          -2.149113           1.759792          -1.785691          -3.833285
hessian_block                9       9           5.246945          -0.365092          -0.710956          -0.365092           6.528607          -1.682741          -0.710956          -1.682741           7.717696
hessian_block                9      10          -0.192223           0.116340           0.226440          -0.307684          -0.480346           0.216806          -0.290608          -0.446606           0.854194
hessian_block                9      11          -0.086211           0.892049          -0.393425          -0.738834           0.616019           0.538504           0.247590           0.282139          -1.157572
hessian_block                9      12          -0.286050          -0.509672           0.388197           0.212516          -0.113444          -0.576988          -0.019681           0.916129          -1.396655
hessian_block               10      10           5.936841           0.922752           1.981028           0.922752           7.650316           3.019010           1.981028           3.019010           9.064772
hessian_block               10      11          -0.158120          -0.288165           0.181196           0.260674          -1.668626          -0.607348           0.024658          -0.779887          -1.083764
hessian_block               10      12          -0.210362          -0.174771          -0.499020          -0.491741          -0.224240          -0.016347          -1.007732          -0.604226          -1.478834
hessian_block               11      11           5.522404           0.311043           0.990071           0.311043           8.102809          -1.159084           0.990071          -1.159084           7.766247
hessian_block               11      12          -0.027980           0.183024          -0.007285           0.494696          -0.862038           0.551300           0.715414          -0.434008           0.885543
hessian_block               12      12           5.804551           0.122160          -0.909291           0.122160           5.764044           1.472717          -0.909291           1.472717           8.463187
hessian_block_lv             1       1          21.660465          -3.631835           3.970451          -3.631835          23.759559           2.786724           3.970451           2.786724           1.714886
hessian_block_lv_atom        1       1           0.566702          -0.090005           0.020038          -0.917918           0.312662          -0.184323          -0.565874           0.258285          -0.012400
hessian_block_lv_atom        1       2          -1.146021           0.169939          -0.153219          -0.829408           0.937292           0.038907          -0.365866           0.324032           0.006612
hessian_block_lv_atom        1       3          -1.605416           0.441618          -0.235769           0.560039           0.133110           0.031218          -0.917570           0.522768          -0.037106
hessian_block_lv_atom        1       4          -0.061388           0.080240          -0.025196           0.641246           0.664299           0.219393           0.046833           0.081250           0.029324
hessian_block_lv_atom        1       5           0.659924          -0.308844           0.306273          -0.764866           0.979906           0.224433          -1.776534          -2.752008          -1.425643
hessian_block_lv_atom        1       6           1.595272          -1.360692          -0.147553           0.861640          -1.590921          -0.223093           0.374168          -4.760864          -1.506302
hessian_block_lv_atom        1       7          -1.343434          -0.046246           0.020158          -0.472313          -1.050931          -0.458452           1.796802           2.195728           1.392891
hessian_block_lv_atom        1       8           1.023992          -0.350623          -0.203117           0.242393          -0.297342           0.207100           0.976469           3.007677           1.419061
hessian_block_lv_atom        1       9           0.360822           0.232115          -0.163652           0.523073          -1.485290          -0.346456           1.918110           2.588128           1.466935
hessian_block_lv_atom        1      10          -1.992184           1.535683           0.231920          -1.015814           1.614201           0.311878           0.429771           4.373067           1.471358
hessian_block_lv_atom        1      11           1.536251          -0.122635           0.013531           0.896018          -0.029791           0.323547          -1.653047          -2.519019          -1.392225
hessian_block_lv_atom        1      12           0.405476          -0.180550           0.336585           0.275912          -0.187192          -0.144151          -0.263259          -3.319043          -1.412504
