# 
# This is the geometry file that corresponds to the current relaxation step.
# If you do not want this file to be written, set the "write_restart_geometry" flag to .false.
#  aims_uuid : 43E3F85C-F028-49DA-AC22-F5CD3991CEBA                                
# 
lattice_vector      5.83783754      0.00000000      0.00000000
lattice_vector      0.00000000      5.95037185      0.00000000
lattice_vector      0.00000000      0.00000000      7.51785069
atom_frac       0.50114302      0.00041046      0.00028199 Pd
atom_frac       0.00040894      0.00047192      0.50137924 Pd
atom_frac       0.00051723      0.50113962      0.00030810 Pd
atom_frac       0.50125276      0.50120069      0.50135422 Pd
atom_frac       0.61287840      0.11862026      0.40369814 Se
atom_frac       0.89028465      0.88374342      0.90433233 Se
atom_frac       0.11215154      0.38305226      0.59876415 Se
atom_frac       0.38942693      0.61938445      0.09791019 Se
atom_frac       0.38948889      0.88375686      0.59876981 Se
atom_frac       0.11214502      0.11870025      0.09793736 Se
atom_frac       0.89021745      0.61929642      0.40370921 Se
atom_frac       0.61288862      0.38302683      0.90435867 Se
# 
# What follows is the current estimated Hessian matrix constructed by the BFGS algorithm.
# This is NOT the true Hessian matrix of the system.
# If you do not want this information here, switch it off using the "hessian_to_restart_geometry" keyword.
# 
trust_radius             0.0122098338
hessian_block                1       1           6.342349          -0.982621          -2.574851          -0.982621           8.917044          -0.184592          -2.574851          -0.184592           5.141409
hessian_block                1       2          -1.024346           2.967754           0.953016          -0.503962           2.534068           0.740985          -0.525708           1.416843           0.492942
hessian_block                1       3          -1.451410           4.170697           1.365852           0.024243          -0.468061          -0.044524          -1.029701           2.354353           0.854537
hessian_block                1       4           0.517778           0.235027          -0.057405           0.418431          -1.016712          -0.335974           0.053681           0.096428           0.026508
hessian_block                1       5           0.556469          -2.084610          -0.799051          -1.661103           3.388915           1.407600          -0.090662          -0.322884           0.022608
hessian_block                1       6          -0.043112          -4.221453          -0.889587           2.023744          -4.498075          -1.710667           4.103126          -7.588701          -3.155164
hessian_block                1       7          -1.141141           2.202117           0.891624           0.519355          -0.739537          -0.227538           0.020097           0.128327          -0.005793
hessian_block                1       8           0.401457          -2.206368          -0.283637          -0.029369          -2.803495           0.412516          -0.902996           3.151080           0.381254
hessian_block                1       9          -0.092617          -0.055828           0.161165           0.715117          -3.134441          -1.119783          -0.217620           0.275007           0.137261
hessian_block                1      10          -4.121785           5.452798           2.689169          -1.477487           3.782914           1.174858          -1.170841           4.686817           1.291673
hessian_block                1      11           1.184335          -3.260884          -1.152625           0.501006          -0.989543          -0.453495           0.243740          -0.262177           0.028427
hessian_block                1      12           0.437931          -2.216629          -0.303672           0.452645          -3.326056           0.340615           2.091734          -3.750500          -2.113800
hessian_block                2       2           8.456523           2.437764           3.597192           2.437764           8.753581           2.778613           3.597192           2.778613           5.620191
hessian_block                2       3           4.309549           3.682255           2.176441          -0.676383          -0.542895          -0.312374           2.301744           1.900073           1.198007
hessian_block                2       4           0.180732           0.518512           0.084684          -1.133759          -0.197195          -0.187038           0.129447           0.432054           0.180902
hessian_block                2       5          -3.596704          -1.113605          -1.659373           3.597432           2.325481           1.795938          -1.119500          -0.504523          -0.830394
hessian_block                2       6          -4.652142          -3.939006          -2.296439          -4.198190          -4.229915          -2.444648          -7.253215          -6.421484          -3.971759
hessian_block                2       7           1.875078           1.051801           0.763873          -1.436875          -2.627511          -1.428037          -0.158010          -0.907953          -0.427951
hessian_block                2       8          -1.761804          -1.757383          -1.003791          -0.722869          -0.942584          -0.537364           2.296311           2.051519           1.367071
hessian_block                2       9          -2.105636           0.261458          -1.028219          -2.114515          -3.297364          -1.313908          -0.696774           0.468136          -0.249708
hessian_block                2      10           4.954755           3.820239           2.460061           4.098624           3.948767           2.534816           5.007086           4.705030           2.878162
hessian_block                2      11          -3.241231          -3.146221          -1.757666          -1.317806          -3.295347          -1.643563          -0.611026          -1.342007          -0.835958
hessian_block                2      12          -1.828864          -1.311851          -0.811056          -1.501177          -0.782062          -0.659280          -4.446270          -3.900445          -2.319640
hessian_block                3       3          11.386372          -0.811756           5.392631          -0.811756           6.228494          -1.461302           5.392631          -1.461302           6.696066
hessian_block                3       4           0.244913          -0.222042          -0.080052          -1.342941           0.313687          -0.691330           0.247373          -0.104938           0.100754
hessian_block                3       5          -2.648900           0.210064          -1.600117           4.395444          -0.051948           2.978778          -0.483353           0.137555          -0.177355
hessian_block                3       6          -6.732901           1.064344          -4.153761          -5.591248          -1.353118          -2.678176         -10.672901           1.620455          -6.802986
hessian_block                3       7           2.865876          -0.133903           1.887583          -1.307313           0.121947          -0.760879           0.004446          -0.043296           0.019402
hessian_block                3       8          -4.256394          -0.129843          -2.150542          -1.757123          -0.316915          -1.174886           2.462175          -0.539144           1.589467
hessian_block                3       9          -0.418414           0.372799           0.058109          -3.966362           0.192560          -2.442721           0.192451           0.152600           0.328216
hessian_block                3      10           6.849152          -0.016115           4.058758           6.505558          -2.422377           4.455169           6.972935           0.188989           3.797813
hessian_block                3      11          -4.348156           0.452011          -2.559456          -1.418767          -0.028464          -0.958394          -0.520527           0.136480          -0.257239
hessian_block                3      12          -4.233776          -0.133418          -2.125194          -2.558446          -0.025887          -1.520684          -7.137525           0.269497          -4.244818
hessian_block                4       4           5.889714           0.092587          -1.985748           0.092587           6.907022           1.435822          -1.985748           1.435822           4.869044
hessian_block                4       5          -0.407108           1.171736           0.214325           0.179489          -2.847621          -0.915802          -0.002155          -1.139772          -0.641406
hessian_block                4       6          -0.051594           1.374970          -0.109006          -0.191096           0.685930          -0.391436           0.375390           1.676204          -0.354155
hessian_block                4       7          -1.942960          -1.305932           0.790017          -0.269803          -0.061575           0.199003           0.843959           0.056590          -0.470822
hessian_block                4       8          -0.184876           0.354050          -0.193662           0.110396          -0.154796          -0.095526          -0.176832          -0.511180           0.155448
hessian_block                4       9          -0.279736           0.641181           0.123387           0.076061          -1.635908          -1.141696           0.102395          -0.792076          -0.441554
hessian_block                4      10          -0.444684          -1.588422           0.032613          -0.307562          -0.554525           0.404296          -0.028403          -0.941836           0.412337
hessian_block                4      11          -1.873193           0.539898           0.734951          -0.598356          -0.540888          -0.021321           0.884632           0.183649          -0.548279
hessian_block                4      12          -0.083073           0.778202          -0.037379           0.376790           0.749604           0.103115           0.039534           1.246941          -0.186914
hessian_block                5       5           6.187048          -2.531911          -0.882912          -2.531911           9.921981          -1.654887          -0.882912          -1.654887           7.666911
hessian_block                5       6           2.999446          -5.417064           0.501945           2.632640          -5.207496           1.180498           4.489947          -9.432759           1.711500
hessian_block                5       7          -1.640121           3.398830          -0.428671          -0.157374          -0.897637           0.486730           0.179098           0.570277          -1.042334
hessian_block                5       8           0.994279          -1.943986           0.683218           0.907936          -1.260110          -0.316939          -1.174414           3.385026          -1.308266
hessian_block                5       9          -1.271508          -0.448224           1.714932           1.397796          -5.121834           2.760649           1.382764           2.721313          -3.480720
hessian_block                5      10          -2.989888           6.126290          -0.404779          -2.232766           5.289426          -1.121760          -2.775666           6.059718          -1.580505
hessian_block                5      11           2.294643          -4.191803           0.719262           1.200940          -1.673145           0.058015          -0.274417          -0.841947           1.217298
hessian_block                5      12           1.088256          -1.503392          -0.207325           0.599154          -2.218989           0.437319           2.899816          -6.073256           1.544528
hessian_block                6       6          12.371939           6.989927          13.558989           6.989927          12.005868          12.905701          13.558989          12.905701          28.147552
hessian_block                6       7          -3.180543          -3.222770          -5.651471           1.852135           1.688179           3.333304          -0.103576          -0.308140          -0.771131
hessian_block                6       8           2.549381           2.804313           4.408374           1.670518           1.543184           2.781081          -3.941103          -4.037220          -7.496320
hessian_block                6       9           0.168491           0.265543           0.201521           4.731396           5.093288           8.029280          -0.557160          -0.888273          -1.882167
hessian_block                6      10          -9.322870          -8.393422         -15.364996          -7.789780          -8.164466         -13.859549         -10.127540          -9.965252         -17.410266
hessian_block                6      11           4.703704           4.700231           7.821920           1.328655           1.921770           2.727071           0.531233           1.079291           1.919080
hessian_block                6      12           2.756110           2.180328           3.983316           2.355357           2.161875           4.229397           7.586003           7.258320          13.167680
hessian_block                7       7           6.784081          -0.160492           1.227127          -0.160492           6.173680          -1.267439           1.227127          -1.267439           7.504881
hessian_block                7       8          -1.360093           0.583792          -0.273306          -0.670819           0.088769           0.614284           2.113948          -1.339335           1.034644
hessian_block                7       9           0.313357           0.575394          -0.186250          -2.627954           0.513347          -0.531806           0.704868          -0.429222           1.105943
hessian_block                7      10           3.733780          -2.178834           0.128075           3.327852          -2.022634           0.191487           3.487308          -2.627217           0.718432
hessian_block                7      11          -3.824598           1.442496          -1.911817          -0.320140          -1.458730           2.093124          -1.959313           2.297719          -3.432496
hessian_block                7      12          -0.916802           0.537518           0.230157          -1.538588           0.868725          -0.595454          -3.826895           1.762910          -1.130910
hessian_block                8       8           5.582457           0.505966          -2.488392           0.505966           5.831697           0.464000          -2.488392           0.464000           9.438118
hessian_block                8       9           0.293571          -0.444182          -0.242800           1.973896           1.187607          -2.882051          -0.374110           0.194540           1.385653
hessian_block                8      10          -2.729274          -1.789581           4.480082          -2.820716          -1.633683           4.281878          -3.204793          -1.681688           5.274661
hessian_block                8      11           2.015674           0.813839          -2.815661           0.779529           1.070599          -0.675536           0.664144          -0.414255          -1.430381
hessian_block                8      12           0.021535           1.405287           0.389684           1.856752          -0.963251          -3.349039           4.216497          -0.245764          -7.289486
hessian_block                9       9           5.011978          -0.449239          -0.754077          -0.449239           9.296928          -1.983876          -0.754077          -1.983876           7.581802
hessian_block                9      10          -0.153941          -4.630626           0.703802          -0.363800          -4.550719           0.927343          -0.531364          -5.535522           1.413739
hessian_block                9      11          -0.102225           3.709079          -0.737465          -0.568686           1.848065           0.030078           0.418864           0.805948          -1.124328
hessian_block                9      12           0.202592           1.185352           0.250923           0.213584           1.255496          -0.675570           0.064734           5.355487          -1.672272
hessian_block               10      10          13.808352           7.661915          10.196326           7.661915          12.569046           9.522364          10.196326           9.522364          16.981583
hessian_block               10      11          -5.091636          -4.510702          -5.142410          -1.481032          -2.078974          -1.605805          -0.771841          -1.339056          -1.620891
hessian_block               10      12          -2.926051          -2.091136          -2.682637          -2.983209          -2.515752          -2.805600          -8.207269          -7.171848          -9.054874
hessian_block               11      11           8.312929           1.600291           1.540314           1.600291           6.769410          -1.097368           1.540314          -1.097368           7.604696
hessian_block               11      12           1.535668           0.294366          -0.145803           1.851767           0.102273           0.793722           5.260655           1.547196           1.581937
hessian_block               12      12           5.512387           0.875373           1.458986           0.875373           6.341047           3.701460           1.458986           3.701460          14.820434
hessian_block_lv             1       1          26.209909          -2.056081           6.656524          -2.056081          24.407335           3.479264           6.656524           3.479264           3.191745
hessian_block_lv_atom        1       1          -1.193876          -0.600030          -0.791956           2.936087           1.950500           2.038506           1.366291           0.862068           0.824445
hessian_block_lv_atom        1       2           2.983616           1.705332           1.959947           3.730703           2.190003           1.915566           2.021954           1.002980           1.056981
hessian_block_lv_atom        1       3           4.418816           2.562534           2.807652          -0.505282           0.009898          -0.202138           3.045066           1.796447           1.838089
hessian_block_lv_atom        1       4           0.125234           0.080652          -0.014610           0.228353           0.186152          -0.338067           0.363607           0.106561           0.053929
hessian_block_lv_atom        1       5          -2.103960          -1.221142          -1.001543           3.832971           2.810768           2.853961          -2.256052          -2.846454          -1.690290
hessian_block_lv_atom        1       6          -4.871782          -3.741857          -3.655151          -5.515456          -3.847251          -3.584334         -10.504690          -8.349755          -6.957678
hessian_block_lv_atom        1       7           1.992835           1.118114           1.786446          -1.380006          -1.401153          -1.139743           0.862749           2.151178           1.273099
hessian_block_lv_atom        1       8          -2.107176          -1.137736          -1.519408          -1.444923          -0.846089          -0.508391           4.394905           4.282258           3.183412
hessian_block_lv_atom        1       9           0.143349           0.215876          -0.257366          -4.289791          -3.133114          -2.689057           1.638946           2.702962           1.594449
hessian_block_lv_atom        1      10           5.192238           3.842656           3.914454           5.777018           3.668573           3.577075           7.760987           6.663412           5.191489
hessian_block_lv_atom        1      11          -3.132631          -1.888373          -2.467872          -2.096648          -0.618501          -0.571973          -1.934704          -2.597019          -1.662017
hessian_block_lv_atom        1      12          -1.446666          -0.936028          -0.760594          -1.273025          -0.969783          -1.351404          -6.759058          -5.774638          -4.705908
symmetry_n_params 39 3 36
symmetry_params a1 b2 c3 x0 x1 x2 x3 x4 x5 x6 x7 x8 x9 x10 x11 x12 x13 x14 x15 x16 x17 x18 x19 x20 x21 x22 x23 x24 x25 x26 x27 x28 x29 x30 x31 x32 x33 x34 x35
symmetry_lv a1 , 0 , 0 
symmetry_lv 0 , b2 , 0 
symmetry_lv 0 , 0 , c3
symmetry_frac x0 , x1 , x2
symmetry_frac x3 , x4 , x5
symmetry_frac x6 , x7 , x8
symmetry_frac x9 , x10 , x11
symmetry_frac x12 , x13 , x14
symmetry_frac x15 , x16 , x17
symmetry_frac x18 , x19 , x20
symmetry_frac x21 , x22 , x23
symmetry_frac x24 , x25 , x26
symmetry_frac x27 , x28 , x29
symmetry_frac x30 , x31 , x32
symmetry_frac x33 , x34 , x35
