# 
# This is the geometry file that corresponds to the current relaxation step.
# If you do not want this file to be written, set the "write_restart_geometry" flag to .false.
#  aims_uuid : 6507AC3A-99A9-4DF7-AE44-4B34F558ED02                                
# 
lattice_vector      5.85112800      0.00000000      0.00000000
lattice_vector      0.00000000      5.95730679      0.00000000
lattice_vector      0.00000000      0.00000000      7.44924810
atom_frac       0.50224502      0.00168889      0.00157571 Pd
atom_frac       0.00167628      0.00167864      0.50238065 Pd
atom_frac       0.00173831      0.50225428      0.00158302 Pd
atom_frac       0.50230695      0.50224597      0.50237533 Pd
atom_frac       0.61409480      0.11973937      0.40423524 Se
atom_frac       0.89100928      0.88480739      0.90471612 Se
atom_frac       0.11350538      0.38426207      0.60040906 Se
atom_frac       0.39042686      0.62031284      0.09972628 Se
atom_frac       0.39044987      0.88481800      0.60041037 Se
atom_frac       0.11351547      0.11972533      0.09972160 Se
atom_frac       0.89100634      0.62031381      0.40424195 Se
atom_frac       0.61410610      0.38423408      0.90470531 Se
# 
# What follows is the current estimated Hessian matrix constructed by the BFGS algorithm.
# This is NOT the true Hessian matrix of the system.
# If you do not want this information here, switch it off using the "hessian_to_restart_geometry" keyword.
# 
trust_radius             0.0122098338
hessian_block                1       1           6.244680          -0.418371          -2.365973          -0.418371           7.297185          -0.769966          -2.365973          -0.769966           4.874049
hessian_block                1       2          -0.581033           1.464391           0.377312          -0.397093           1.399951           0.259478          -0.495475           0.738083           0.252399
hessian_block                1       3          -0.896847           2.009167           0.553874           0.125670          -0.410410           0.010939          -0.673763           1.020671           0.329060
hessian_block                1       4           0.514248           0.211719          -0.074280           0.077033          -0.474083          -0.179406          -0.053624           0.146189           0.039661
hessian_block                1       5           0.362400          -1.147214          -0.428655          -0.930957           1.385904           0.710626          -0.103482           0.008781           0.134755
hessian_block                1       6          -0.980103          -1.505654           0.081856           1.349191          -2.047529          -0.839853           2.901909          -3.118215          -1.540925
hessian_block                1       7          -0.790607           1.060998           0.502117           0.295593          -0.116391          -0.034836           0.253781          -0.173798          -0.057452
hessian_block                1       8           0.163282          -1.205831           0.074311          -0.084653          -2.346689           0.625222          -0.372301           1.604323          -0.203646
hessian_block                1       9          -0.147301           0.036059           0.182007           0.225234          -1.539142          -0.511153           0.025443          -0.193954           0.007067
hessian_block                1      10          -3.292820           2.603178           1.693036          -1.027113           1.452799           0.330492          -0.437204           1.604411           0.199852
hessian_block                1      11           0.644375          -1.627189          -0.563116           0.739742          -0.652771          -0.245493           0.203452           0.105901           0.130635
hessian_block                1      12           0.325634          -1.481252          -0.032492           0.045724          -2.301801           0.643950           1.117235          -0.972425          -1.063591
hessian_block                2       2           7.158229           1.683378           3.202453           1.683378           8.975365           3.064567           3.202453           3.064567           5.851721
hessian_block                2       3           2.536081           2.895860           1.807741          -0.749151          -0.925676          -0.609586           1.173195           1.319522           0.930356
hessian_block                2       4           0.205230           0.607295           0.158755          -0.470776           0.730253           0.450452           0.268400           0.799557           0.426818
hessian_block                2       5          -2.874981          -0.940594          -1.633812           1.671295           0.719477           0.795858          -0.891057          -0.537225          -0.882276
hessian_block                2       6          -2.128381          -2.002182          -1.138586          -2.106215          -3.112197          -1.825672          -3.427121          -4.330240          -2.851181
hessian_block                2       7           0.822279           0.331801           0.318297          -0.792259          -2.004862          -1.017935          -0.621950          -1.712445          -1.003505
hessian_block                2       8          -0.988420          -1.488553          -0.891394          -0.432104          -1.051515          -0.681354           0.829320           0.881319           0.693387
hessian_block                2       9          -2.003967           0.413804          -0.922430          -0.663380          -2.347917          -0.781598          -1.246902          -0.247744          -0.737228
hessian_block                2      10           2.440360           2.246898           1.549956           2.320950           3.554695           2.428469           2.460553           3.550948           2.301381
hessian_block                2      11          -1.742314          -2.088531          -1.124611          -1.442736          -4.470717          -2.548412          -0.308233          -1.241087          -0.779151
hessian_block                2      12          -1.277175          -1.262082          -0.830896          -0.483390           0.180169          -0.012873          -1.815968          -1.806652          -1.100856
hessian_block                3       3           9.075147          -1.037845           3.899695          -1.037845           6.407347          -1.559700           3.899695          -1.559700           5.730120
hessian_block                3       4           0.335228          -0.263925          -0.046375          -0.226009           0.070420          -0.054648           0.531358          -0.245052           0.256723
hessian_block                3       5          -1.789576           0.375800          -1.015311           1.558989           0.107161           1.267219          -0.237072           0.230467          -0.021026
hessian_block                3       6          -3.119631           0.942520          -1.936944          -2.754651          -1.197952          -0.902972          -5.525022           1.873137          -3.584621
hessian_block                3       7           1.347405          -0.131153           0.966949          -0.296586           0.017454          -0.190884          -0.836304           0.220641          -0.418578
hessian_block                3       8          -3.301132           0.014555          -1.525310          -1.489568          -0.157483          -0.949935           0.371814          -0.436512           0.302406
hessian_block                3       9          -0.238135           0.335267           0.155301          -1.918892           0.201250          -1.166560          -0.703040           0.340074          -0.167744
hessian_block                3      10           3.374566          -0.082493           1.918320           4.310746          -2.850351           3.029241           3.637037          -0.102522           1.702322
hessian_block                3      11          -2.191923           0.435650          -1.229472          -2.045956           0.549668          -1.192294          -0.126702           0.184278          -0.033490
hessian_block                3      12          -3.565273           0.035106          -1.686284          -1.005257          -0.164406          -0.619658          -3.373379           0.093833          -1.923664
hessian_block                4       4           5.949090           0.159364          -1.960914           0.159364           7.024212           1.599143          -1.960914           1.599143           4.971816
hessian_block                4       5          -0.483229           0.596312           0.036754           0.095528          -2.286233          -0.926339          -0.007072          -1.397221          -0.730773
hessian_block                4       6          -0.015899           0.477443          -0.165208          -0.217189          -0.464214          -0.643507           0.331938          -0.394215          -0.780125
hessian_block                4       7          -2.004186          -0.887630           0.856900          -0.167347          -0.171701           0.242135           0.733347          -0.160881          -0.662652
hessian_block                4       8          -0.278114          -0.215424          -0.335550           0.033676          -0.541050          -0.247587          -0.215093          -0.036774           0.168738
hessian_block                4       9          -0.269585           0.659042           0.155034           0.126897          -2.261143          -1.257277           0.031499          -0.839087          -0.566950
hessian_block                4      10          -0.456724          -0.402939           0.228131          -0.196002           0.899212           0.843987           0.030710           0.644818           0.795403
hessian_block                4      11          -1.829688          -0.048442           0.650540          -0.828506          -1.415682          -0.477934           0.917980          -0.025149          -0.604390
hessian_block                4      12          -0.100458           0.282025          -0.211819           0.438493           0.537033           0.166684           0.099505           0.392969          -0.212406
hessian_block                5       5           5.919645          -1.255442          -0.947040          -1.255442           7.539672          -1.250556          -0.947040          -1.250556           7.735321
hessian_block                5       6           1.426348          -2.111502           0.019108           1.512031          -2.093054           0.879728           2.437904          -3.829057           1.285177
hessian_block                5       7          -0.986866           2.009913          -0.225921          -0.660887          -0.268999           0.412439           0.658694           0.390779          -0.919610
hessian_block                5       8           0.681716          -0.596326           0.598173           0.874398          -0.571711          -0.318918          -0.244968           1.545047          -1.070172
hessian_block                5       9          -1.370748          -0.361552           1.682721           0.515670          -3.154034           2.510972           1.849212           2.284060          -3.379541
hessian_block                5      10          -1.561502           2.605948          -0.053183          -1.505006           2.200578          -1.027910          -1.513818           2.173170          -1.385988
hessian_block                5      11           1.364559          -2.162409           0.390244           1.750358          -0.881359           0.279962          -0.423798          -0.438372           1.267336
hessian_block                5      12           0.878147          -0.523483          -0.225420          -0.115426          -1.050378           0.209482           1.224837          -2.722435           1.068661
hessian_block                6       6           7.919358           2.932570           6.289733           2.932570           8.665337           6.910390           6.289733           6.910390          17.564953
hessian_block                6       7          -1.252410          -1.526137          -2.563276           0.898546           0.692469           1.665188           0.301923           0.434713           0.428310
hessian_block                6       8           0.909246           1.550666           2.189448           0.880433           1.109061           1.930824          -1.440858          -1.750946          -3.423262
hessian_block                6       9           0.037361           0.077770          -0.097549           2.051623           2.807913           3.828922           0.120208          -0.023134          -0.458547
hessian_block                6      10          -4.674640          -4.403904          -8.305300          -3.947832          -5.383192          -8.923927          -5.163039          -6.007447         -10.535164
hessian_block                6      11           1.928443           2.253138           3.314884           0.678014           2.195688           3.099279          -0.003215           0.659962           1.306838
hessian_block                6      12           1.516218           1.332731           2.452452           0.706017           0.474694           1.287914           3.035019           3.108737           5.690410
hessian_block                7       7           6.050758           0.225547           1.015046           0.225547           6.177865          -1.410773           1.015046          -1.410773           7.916202
hessian_block                7       8          -0.612986           0.058652           0.183774          -0.345879          -0.239776           0.997369           1.040316          -0.870140           0.887351
hessian_block                7       9           0.394472           0.576009          -0.236921          -1.573849          -0.046038          -0.181059           0.361918          -0.452817           1.354563
hessian_block                7      10           1.769412          -1.156056          -0.501702           1.738922          -0.958562          -0.888194           1.368554          -1.465937          -0.222496
hessian_block                7      11          -2.715345           0.814864          -1.555664          -0.098192          -2.041558           3.104531          -1.755166           2.273581          -3.401683
hessian_block                7      12          -0.456013           0.203925           0.605978          -0.804339           0.607121          -0.620881          -1.885736           0.849979          -0.798585
hessian_block                8       8           5.241002           0.456960          -1.548903           0.456960           5.918675           0.971939          -1.548903           0.971939           8.021873
hessian_block                8       9           0.206992          -0.506664          -0.184505           1.009327           0.762395          -1.336642           0.068763           0.522743           1.064768
hessian_block                8      10          -1.181351          -1.139520           1.901100          -1.943851          -1.517025           2.103153          -1.804511          -1.221265           2.535178
hessian_block                8      11           0.990210           0.371530          -1.228992           1.259506           1.658322          -0.184398           0.479587          -0.492495          -1.189895
hessian_block                8      12          -0.264532           1.381390           1.093073           1.100321          -1.376183          -2.490371           2.511611          -1.136545          -4.684863
hessian_block                9       9           5.024321          -0.551930          -0.782529          -0.551930           7.790427          -1.484155          -0.782529          -1.484155           7.705969
hessian_block                9      10           0.025966          -1.933068          -0.129919          -0.135052          -2.482122          -0.122079          -0.297603          -2.716937           0.383265
hessian_block                9      11          -0.207720           2.142554          -0.213291          -0.724226           1.664629           0.760481           0.391239           0.530226          -1.075567
hessian_block                9      12           0.114255           0.569815           0.618634           0.181474           0.250807          -0.544388          -0.044762           2.565263          -1.028191
hessian_block               10      10           9.182039           4.180660           5.508952           4.180660          10.752819           6.478689           5.508952           6.478689          12.595986
hessian_block               10      11          -2.217676          -2.218591          -2.040515          -1.367990          -3.273573          -2.227038          -0.336047          -1.051905          -1.270085
hessian_block               10      12          -1.841722          -1.577832          -1.749115          -1.150713          -0.748254          -0.710892          -3.473344          -3.200018          -3.997789
hessian_block               11      11           6.701980           1.339000           1.178271           1.339000           8.851549          -1.085373           1.178271          -1.085373           7.665365
hessian_block               11      12           0.841014           0.740986          -0.217369           0.788427          -0.537170           0.580433           2.421725           0.716691           1.085953
hessian_block               12      12           5.395819           0.298670           0.183258           0.298670           5.775390           2.110600           0.183258           2.110600          10.066787
hessian_block_lv             1       1          23.531585          -3.500987           5.333016          -3.500987          23.725385           2.787319           5.333016           2.787319           2.478594
hessian_block_lv_atom        1       1          -0.122153          -0.098689          -0.399686           0.176421           0.366599           0.616651           0.207391           0.239208           0.371520
hessian_block_lv_atom        1       2           0.148575           0.193394           0.676776           0.979129           0.973576           1.111595           0.508131           0.349007           0.557296
hessian_block_lv_atom        1       3           0.376928           0.500373           1.052261           0.025082           0.157906          -0.196520           0.532683           0.525612           0.786031
hessian_block_lv_atom        1       4           0.020794           0.064062          -0.046825           0.758489           0.683940           0.265490           0.202579           0.092619           0.138631
hessian_block_lv_atom        1       5          -0.181246          -0.305373          -0.282593           0.791212           1.038993           1.181706          -1.932658          -2.812158          -1.625259
hessian_block_lv_atom        1       6          -0.739818          -1.395003          -1.454464          -1.431963          -1.698685          -1.671786          -3.512136          -4.778032          -3.724479
hessian_block_lv_atom        1       7           0.005524           0.016635           0.831984          -0.899582          -1.106309          -0.772584           1.232823           2.195776           1.102829
hessian_block_lv_atom        1       8          -0.381893          -0.318623          -0.738565          -0.232219          -0.295498          -0.155781           2.062872           3.006223           2.033647
hessian_block_lv_atom        1       9           0.128876           0.232220          -0.172065          -1.338714          -1.537595          -1.397664           1.617666           2.599658           1.322773
hessian_block_lv_atom        1      10           0.843059           1.549460           1.772045           1.625014           1.712185           1.910224           3.136051           4.437627           3.116113
hessian_block_lv_atom        1      11          -0.119470          -0.194472          -1.006206          -0.289406          -0.039615          -0.388189          -1.720090          -2.581213          -1.583007
hessian_block_lv_atom        1      12           0.020820          -0.243984          -0.232664          -0.163460          -0.255496          -0.503141          -2.335310          -3.274327          -2.496094
symmetry_n_params 39 3 36
symmetry_params a1 b2 c3 x0 x1 x2 x3 x4 x5 x6 x7 x8 x9 x10 x11 x12 x13 x14 x15 x16 x17 x18 x19 x20 x21 x22 x23 x24 x25 x26 x27 x28 x29 x30 x31 x32 x33 x34 x35
symmetry_lv a1 , 0 , 0 
symmetry_lv 0 , b2 , 0 
symmetry_lv 0 , 0 , c3
symmetry_frac x0 , x1 , x2
symmetry_frac x3 , x4 , x5
symmetry_frac x6 , x7 , x8
symmetry_frac x9 , x10 , x11
symmetry_frac x12 , x13 , x14
symmetry_frac x15 , x16 , x17
symmetry_frac x18 , x19 , x20
symmetry_frac x21 , x22 , x23
symmetry_frac x24 , x25 , x26
symmetry_frac x27 , x28 , x29
symmetry_frac x30 , x31 , x32
symmetry_frac x33 , x34 , x35
