# 
# This is the geometry file that corresponds to the current relaxation step.
# If you do not want this file to be written, set the "write_restart_geometry" flag to .false.
#  aims_uuid : B8591A88-CF15-472F-A90D-BCD3A966E9A3                                
# 
lattice_vector      5.83790325      0.00000000      0.00000000
lattice_vector      0.00000000      5.95044248      0.00000000
lattice_vector      0.00000000      0.00000000      7.51784453
atom_frac       0.50114250      0.00041093      0.00027694 Pd
atom_frac       0.00040890      0.00046790      0.50138279 Pd
atom_frac       0.00051786      0.50113952      0.00030326 Pd
atom_frac       0.50125391      0.50119664      0.50135712 Pd
atom_frac       0.61287515      0.11862365      0.40370683 Se
atom_frac       0.89028716      0.88374705      0.90433792 Se
atom_frac       0.11215003      0.38305312      0.59876358 Se
atom_frac       0.38942957      0.61938531      0.09790099 Se
atom_frac       0.38949204      0.88376092      0.59876957 Se
atom_frac       0.11214386      0.11869734      0.09792562 Se
atom_frac       0.89021862      0.61929935      0.40371738 Se
atom_frac       0.61288519      0.38302308      0.90436280 Se
# 
# What follows is the current estimated Hessian matrix constructed by the BFGS algorithm.
# This is NOT the true Hessian matrix of the system.
# If you do not want this information here, switch it off using the "hessian_to_restart_geometry" keyword.
# 
trust_radius             0.0122098548
hessian_block                1       1           6.353412          -0.999939          -2.586284          -0.999939           8.932655          -0.162646          -2.586284          -0.162646           5.155608
hessian_block                1       2          -1.047827           2.990276           0.977354          -0.547052           2.633673           0.790779          -0.547526           1.463163           0.516972
hessian_block                1       3          -1.486524           4.221489           1.405838           0.029917          -0.470788          -0.047620          -1.051695           2.386691           0.880430
hessian_block                1       4           0.523386           0.222512          -0.062269           0.400610          -0.941928          -0.313578           0.040470           0.139463           0.041465
hessian_block                1       5           0.562587          -2.068998          -0.803358          -1.676558           3.398984           1.430030          -0.070887          -0.385315          -0.001917
hessian_block                1       6           0.002071          -4.318342          -0.950082           2.083521          -4.634336          -1.784396           4.203294          -7.810856          -3.276248
hessian_block                1       7          -1.153592           2.217020           0.908056           0.529817          -0.777273          -0.246699           0.020449           0.135658          -0.003613
hessian_block                1       8           0.420488          -2.244488          -0.306474          -0.018702          -2.827354           0.399271          -0.942183           3.246088           0.428331
hessian_block                1       9          -0.091051          -0.061910           0.158570           0.757590          -3.239610          -1.174424          -0.223694           0.296097           0.146524
hessian_block                1      10          -4.165922           5.539084           2.747014          -1.536465           3.908601           1.244464          -1.251671           4.883153           1.390291
hessian_block                1      11           1.207004          -3.295014          -1.181529           0.525953          -1.035156          -0.475905           0.258740          -0.311127           0.008884
hessian_block                1      12           0.441879          -2.201691          -0.306836           0.451310          -3.300442           0.340723           2.150987          -3.880368          -2.184861
hessian_block                2       2           8.493296           2.538670           3.646367           2.538670           8.919892           2.862243           3.646367           2.862243           5.662741
hessian_block                2       3           4.374467           3.844601           2.255535          -0.687157          -0.556437          -0.320152           2.342247           2.005634           1.249066
hessian_block                2       4           0.167781           0.515164           0.082138          -1.072423          -0.151061          -0.161515           0.167607           0.465334           0.199112
hessian_block                2       5          -3.595274          -1.159328          -1.681693           3.611826           2.432232           1.843773          -1.173811          -0.579760          -0.868695
hessian_block                2       6          -4.746097          -4.154478          -2.398669          -4.328886          -4.471538          -2.562502          -7.475871          -6.835753          -4.176106
hessian_block                2       7           1.894269           1.122611           0.796635          -1.462761          -2.684438          -1.452693          -0.157616          -0.903518          -0.426769
hessian_block                2       8          -1.802816          -1.841614          -1.044676          -0.748599          -1.001109          -0.566677           2.388967           2.207361           1.444882
hessian_block                2       9          -2.110009           0.257984          -1.028994          -2.210810          -3.473650          -1.399605          -0.682372           0.499756          -0.234837
hessian_block                2      10           5.044337           4.036649           2.562728           4.226913           4.186198           2.651391           5.196965           5.031866           3.040520
hessian_block                2      11          -3.281341          -3.265148          -1.813907          -1.376577          -3.384757          -1.692100          -0.653293          -1.403946          -0.866950
hessian_block                2      12          -1.824874          -1.348058          -0.827938          -1.480473          -0.801983          -0.665328          -4.576541          -4.139994          -2.438069
hessian_block                3       3          11.500419          -0.824622           5.465369          -0.824622           6.235258          -1.468928           5.465369          -1.468928           6.743222
hessian_block                3       4           0.229980          -0.219669          -0.088830          -1.253605           0.310309          -0.631668           0.302042          -0.107739           0.136050
hessian_block                3       5          -2.654710           0.215632          -1.603666           4.439710          -0.050566           3.006850          -0.571049           0.141198          -0.235083
hessian_block                3       6          -6.902096           1.070391          -4.261413          -5.811507          -1.343281          -2.819956         -11.045335           1.646867          -7.042569
hessian_block                3       7           2.903374          -0.133356           1.909856          -1.358145           0.118385          -0.794926           0.008894          -0.039026           0.021422
hessian_block                3       8          -4.325662          -0.124500          -2.195832          -1.802546          -0.312203          -1.205656           2.613269          -0.549447           1.686888
hessian_block                3       9          -0.424952           0.372997           0.054415          -4.129377           0.196039          -2.548267           0.221776           0.153477           0.347247
hessian_block                3      10           7.010073          -0.024985           4.161200           6.719183          -2.439047           4.593348           7.286486           0.169002           4.000335
hessian_block                3      11          -4.423140           0.454376          -2.606079          -1.506696          -0.011845          -1.016147          -0.589181           0.138675          -0.302270
hessian_block                3      12          -4.235319          -0.129023          -2.125573          -2.538488          -0.028802          -1.506975          -7.353645           0.283691          -4.382873
hessian_block                4       4           5.892111           0.103690          -1.984071           0.103690           6.875545           1.422905          -1.984071           1.422905           4.866950
hessian_block                4       5          -0.398747           1.120402           0.188209           0.165280          -2.757023          -0.864445          -0.008359          -1.147981          -0.648598
hessian_block                4       6          -0.036425           1.273237          -0.177000          -0.179500           0.601239          -0.452658           0.392702           1.528247          -0.458912
hessian_block                4       7          -1.955457          -1.254111           0.822862          -0.270137          -0.082451           0.185125           0.845063           0.059205          -0.467821
hessian_block                4       8          -0.180867           0.317341          -0.216028           0.109852          -0.181094          -0.109312          -0.180039          -0.465639           0.189503
hessian_block                4       9          -0.279377           0.643930           0.123515           0.083255          -1.696231          -1.185405           0.105730          -0.780763          -0.434299
hessian_block                4      10          -0.462022          -1.478578           0.103776          -0.316943          -0.470580           0.462060          -0.035170          -0.843716           0.484444
hessian_block                4      11          -1.858857           0.464419           0.688334          -0.599201          -0.563328          -0.034726           0.880485           0.173571          -0.556009
hessian_block                4      12          -0.075597           0.735088          -0.059715           0.385696           0.703628           0.079398           0.052621           1.160933          -0.250019
hessian_block                5       5           6.171483          -2.505875          -0.848165          -2.505875           9.921202          -1.728643          -0.848165          -1.728643           7.712698
hessian_block                5       6           3.013115          -5.517593           0.610272           2.674883          -5.353960           1.299469           4.571533          -9.668559           1.919215
hessian_block                5       7          -1.624842           3.409828          -0.471670          -0.150154          -0.938504           0.516515           0.180190           0.582104          -1.057591
hessian_block                5       8           1.005684          -1.982363           0.731264           0.919074          -1.283673          -0.289998          -1.214726           3.489120          -1.389143
hessian_block                5       9          -1.271835          -0.453969           1.713058           1.429683          -5.237972           2.851303           1.373901           2.746095          -3.510212
hessian_block                5      10          -2.999546           6.211209          -0.517929          -2.280148           5.416694          -1.236979          -2.856782           6.275182          -1.742431
hessian_block                5      11           2.285658          -4.222756           0.789562           1.236604          -1.717542           0.095589          -0.249428          -0.898677           1.254780
hessian_block                5      12           1.072337          -1.478740          -0.182286           0.568225          -2.182848           0.464603           2.943986          -6.212830           1.668840
hessian_block                6       6          12.637551           7.315368          14.073644           7.315368          12.375010          13.519215          14.073644          13.519215          29.166935
hessian_block                6       7          -3.261370          -3.329731          -5.819176           1.939834           1.783957           3.481016          -0.115892          -0.327546          -0.796915
hessian_block                6       8           2.649815           2.923978           4.615380           1.728673           1.617504           2.905694          -4.142160          -4.273674          -7.891058
hessian_block                6       9           0.180808           0.274780           0.210986           4.978078           5.369973           8.487346          -0.594960          -0.939275          -1.966803
hessian_block                6      10          -9.573349          -8.710829         -15.872256          -8.085554          -8.506365         -14.441455         -10.552962         -10.458417         -18.232154
hessian_block                6      11           4.836340           4.873939           8.102598           1.416890           2.026770           2.928716           0.619048           1.178109           2.087197
hessian_block                6      12           2.765551           2.213983           4.042502           2.353493           2.182051           4.259522           7.890174           7.621631          13.769283
hessian_block                7       7           6.799524          -0.191206           1.235544          -0.191206           6.203616          -1.275799           1.235544          -1.275799           7.519877
hessian_block                7       8          -1.386818           0.612999          -0.280380          -0.684075           0.105801           0.619238           2.184466          -1.395888           1.049287
hessian_block                7       9           0.305097           0.577261          -0.185978          -2.710110           0.588821          -0.551674           0.720875          -0.442456           1.119406
hessian_block                7      10           3.803215          -2.260580           0.139246           3.419651          -2.101783           0.200904           3.633285          -2.748783           0.742165
hessian_block                7      11          -3.853499           1.489683          -1.922719          -0.343279          -1.445055           2.102871          -1.992512           2.322870          -3.444523
hessian_block                7      12          -0.903988           0.543389           0.233198          -1.523240           0.875947          -0.602416          -3.928224           1.851719          -1.153062
hessian_block                8       8           5.622238           0.531743          -2.572865           0.531743           5.855451           0.417399          -2.572865           0.417399           9.590294
hessian_block                8       9           0.296136          -0.444255          -0.245602           2.062830           1.241314          -3.059052          -0.394947           0.187010           1.423224
hessian_block                8      10          -2.826659          -1.846601           4.681576          -2.935835          -1.711711           4.506848          -3.376309          -1.784319           5.589201
hessian_block                8      11           2.065281           0.842227          -2.931957           0.822925           1.110116          -0.750723           0.702750          -0.393234          -1.495505
hessian_block                8      12           0.029092           1.413210           0.361254           1.856985          -0.966021          -3.372393           4.338117          -0.179417          -7.524039
hessian_block                9       9           5.015098          -0.443180          -0.751826          -0.443180           9.506999          -2.026790          -0.751826          -2.026790           7.599670
hessian_block                9      10          -0.164900          -4.869996           0.742720          -0.369609          -4.802892           0.971808          -0.537971          -5.903342           1.485779
hessian_block                9      11          -0.092823           3.841632          -0.764201          -0.570595           1.918367           0.017940           0.418452           0.881364          -1.147735
hessian_block                9      12           0.203720           1.210404           0.247001           0.216566           1.275869          -0.682899           0.071375           5.628545          -1.726100
hessian_block               10      10          14.043456           7.953874          10.619982           7.953874          12.896517           9.991867          10.619982           9.991867          17.636473
hessian_block               10      11          -5.211833          -4.667683          -5.382638          -1.576846          -2.202007          -1.763012          -0.861677          -1.432601          -1.753028
hessian_block               10      12          -2.930940          -2.127385          -2.743215          -2.972401          -2.526603          -2.849480          -8.506381          -7.511657          -9.539732
hessian_block               11      11           8.366857           1.649757           1.594984           1.649757           6.844747          -1.068505           1.594984          -1.068505           7.634365
hessian_block               11      12           1.526266           0.321066          -0.128370           1.834569           0.106711           0.813501           5.427550           1.656001           1.682661
hessian_block               12      12           5.497785           0.847756           1.489977           0.847756           6.309515           3.721743           1.489977           3.721743          15.179838
hessian_block_lv             1       1          26.434014          -1.737294           6.776735          -1.737294          24.817035           3.631479           6.776735           3.631479           3.206811
hessian_block_lv_atom        1       1          -1.244037          -0.644902          -0.806349           3.082819           2.093294           2.068142           1.429721           0.923606           0.847108
hessian_block_lv_atom        1       2           3.116323           1.825866           1.986708           3.939030           2.394198           2.011930           2.126360           1.103233           1.100371
hessian_block_lv_atom        1       3           4.639136           2.769519           2.868887          -0.521772           0.004845          -0.205136           3.192456           1.938743           1.880141
hessian_block_lv_atom        1       4           0.141351           0.095879          -0.012927           0.267736           0.236966          -0.278777           0.389620           0.133183           0.083865
hessian_block_lv_atom        1       5          -2.200076          -1.307794          -1.011066           3.988662           2.975115           2.873065          -2.367469          -2.990487          -1.747825
hessian_block_lv_atom        1       6          -5.108511          -3.982673          -3.737594          -5.808641          -4.152428          -3.704943         -11.006379          -8.884690          -7.153848
hessian_block_lv_atom        1       7           2.087423           1.205508           1.802945          -1.433151          -1.473808          -1.163023           0.875623           2.195100           1.272162
hessian_block_lv_atom        1       8          -2.231079          -1.262364          -1.562253          -1.524212          -0.919339          -0.541635           4.586777           4.503851           3.262444
hessian_block_lv_atom        1       9           0.158611           0.235202          -0.251890          -4.510826          -3.369580          -2.784010           1.689107           2.789212           1.609072
hessian_block_lv_atom        1      10           5.443942           4.096797           3.993181           6.068285           3.965950           3.690564           8.158447           7.097367           5.365331
hessian_block_lv_atom        1      11          -3.294188          -2.043048          -2.508156          -2.231392          -0.735562          -0.632679          -2.022264          -2.714498          -1.703711
hessian_block_lv_atom        1      12          -1.508893          -0.987990          -0.761486          -1.316538          -1.019650          -1.333499          -7.052000          -6.094620          -4.815109
symmetry_n_params 39 3 36
symmetry_params a1 b2 c3 x0 x1 x2 x3 x4 x5 x6 x7 x8 x9 x10 x11 x12 x13 x14 x15 x16 x17 x18 x19 x20 x21 x22 x23 x24 x25 x26 x27 x28 x29 x30 x31 x32 x33 x34 x35
symmetry_lv a1 , 0 , 0 
symmetry_lv 0 , b2 , 0 
symmetry_lv 0 , 0 , c3
symmetry_frac x0 , x1 , x2
symmetry_frac x3 , x4 , x5
symmetry_frac x6 , x7 , x8
symmetry_frac x9 , x10 , x11
symmetry_frac x12 , x13 , x14
symmetry_frac x15 , x16 , x17
symmetry_frac x18 , x19 , x20
symmetry_frac x21 , x22 , x23
symmetry_frac x24 , x25 , x26
symmetry_frac x27 , x28 , x29
symmetry_frac x30 , x31 , x32
symmetry_frac x33 , x34 , x35
