# 
# This is the geometry file that corresponds to the current relaxation step.
# If you do not want this file to be written, set the "write_restart_geometry" flag to .false.
#  aims_uuid : 0F5268C3-35F8-4E18-A365-4B23C75442A1                                
# 
lattice_vector      5.85480682      0.00000000      0.00000000
lattice_vector      0.00000000      5.95910471      0.00000000
lattice_vector      0.00000000      0.00000000      7.43174746
atom_frac       0.50242419      0.00208237      0.00192343 Pd
atom_frac       0.00206939      0.00208627      0.50265875 Pd
atom_frac       0.00215189      0.50245261      0.00196948 Pd
atom_frac       0.50250619      0.50245612      0.50261261 Pd
atom_frac       0.61429741      0.12007474      0.40432475 Se
atom_frac       0.89104022      0.88488602      0.90453619 Se
atom_frac       0.11391010      0.38454617      0.60074851 Se
atom_frac       0.39062591      0.62041167      0.10025271 Se
atom_frac       0.39066955      0.88491067      0.60074865 Se
atom_frac       0.11394235      0.12008227      0.10027088 Se
atom_frac       0.89101014      0.62041023      0.40432654 Se
atom_frac       0.61427850      0.38452673      0.90455337 Se
# 
# What follows is the current estimated Hessian matrix constructed by the BFGS algorithm.
# This is NOT the true Hessian matrix of the system.
# If you do not want this information here, switch it off using the "hessian_to_restart_geometry" keyword.
# 
trust_radius             0.0122098548
hessian_block                1       1           5.960181           0.056441          -2.201603           0.056441           6.388114          -1.068074          -2.201603          -1.068074           4.800564
hessian_block                1       2          -0.036797           0.457005           0.036918           0.303883           0.244370          -0.137658          -0.031278          -0.033953          -0.039812
hessian_block                1       3          -0.064060           0.508973           0.032107          -0.050074          -0.144042           0.099566          -0.178583           0.129799           0.029835
hessian_block                1       4           0.510000           0.197234          -0.086716           0.114444          -0.439107          -0.182954           0.073358          -0.020526          -0.022968
hessian_block                1       5          -0.033270          -0.437347          -0.192122          -0.357173           0.298588           0.342456          -0.285342           0.302008           0.277334
hessian_block                1       6          -1.766674          -0.045539           0.598493           0.433749          -0.436603          -0.263706           1.267297          -0.255840          -0.478885
hessian_block                1       7          -0.374791           0.325272           0.269503           0.109086           0.174932           0.091584           0.170575          -0.069100          -0.050838
hessian_block                1       8          -0.209167          -0.516478           0.337230          -0.349558          -1.896972           0.770342           0.101574           0.715363          -0.524011
hessian_block                1       9          -0.136042           0.025549           0.190688          -0.397489          -0.450790          -0.155690           0.048766          -0.282361          -0.063820
hessian_block                1      10          -2.311858           0.867289           1.067826           0.053948          -0.397211          -0.355619           0.734586          -0.402012          -0.572057
hessian_block                1      11           0.073491          -0.569399          -0.223213           0.231466           0.188534           0.047906           0.029323           0.375808           0.262346
hessian_block                1      12          -0.045102          -0.869000           0.170888          -0.148723          -1.882788           0.811847           0.271328           0.608890          -0.515821
hessian_block                2       2           6.044133           0.344756           2.319572           0.344756           7.253508           1.916154           2.319572           1.916154           5.117775
hessian_block                2       3           0.862911           0.853255           0.468921          -0.442421          -0.490729          -0.315933           0.178223           0.115506           0.129441
hessian_block                2       4           0.205350           0.626731           0.181387          -0.474956           0.630961           0.388185           0.051546           0.472117           0.210604
hessian_block                2       5          -2.089842           0.027470          -0.989233           0.462370          -0.668173          -0.116684          -0.548217          -0.094116          -0.629533
hessian_block                2       6          -0.502220          -0.104026           0.091631          -0.279600          -0.877880          -0.373156          -0.198544          -0.349253          -0.306715
hessian_block                2       7          -0.020493          -0.682095          -0.374026          -0.442176          -1.573026          -0.755308          -0.496512          -1.503235          -0.828329
hessian_block                2       8          -0.234378          -0.577606          -0.321422           0.080446          -0.413034          -0.245602          -0.167658          -0.284581          -0.051919
hessian_block                2       9          -2.023513           0.381786          -0.957747           0.598696          -0.820916           0.248771          -1.333193          -0.298293          -0.720886
hessian_block                2      10           0.490943          -0.118855           0.018698           0.227751           0.916497           0.735026           0.186816           0.707513           0.503957
hessian_block                2      11          -0.552165          -0.692789          -0.182100          -0.488915          -3.204593          -1.710217           0.013524          -0.821365          -0.537604
hessian_block                2      12          -0.578016          -0.362509          -0.224402          -0.042957           0.650038           0.262717          -0.042471           0.277213           0.254888
hessian_block                3       3           6.554692          -0.555575           2.401586          -0.555575           6.302785          -1.276190           2.401586          -1.276190           4.843336
hessian_block                3       4           0.342476          -0.277462          -0.042426          -0.253992           0.123817          -0.065195           0.186516          -0.148308           0.054450
hessian_block                3       5          -0.595615           0.156168          -0.309351          -0.230097           0.440439           0.197677           0.259570           0.096669           0.285530
hessian_block                3       6          -0.719877           0.477081          -0.498022          -0.022352          -1.759002           0.726822          -0.705466           0.865460          -0.693884
hessian_block                3       7           0.074858           0.120356           0.212518           0.205513          -0.122323           0.119213          -0.603937           0.187109          -0.300338
hessian_block                3       8          -2.177676          -0.199179          -0.852792          -0.701973          -0.307547          -0.492105          -1.101193          -0.146238          -0.579748
hessian_block                3       9          -0.278747           0.343215           0.136448          -0.020201          -0.188607          -0.046524          -0.784290           0.368160          -0.237040
hessian_block                3      10           0.468290           0.510194           0.175843           1.164554          -2.186407           1.147917           0.245106           0.633942          -0.336153
hessian_block                3      11          -0.408215           0.103331          -0.171945          -0.565733           0.253672          -0.325446           0.339410           0.050548           0.256672
hessian_block                3      12          -2.493127          -0.185634          -1.051499          -0.382376          -0.275035          -0.231474          -0.738330          -0.414787          -0.350235
hessian_block                4       4           5.953666           0.178452          -1.955836           0.178452           6.949096           1.543114          -1.955836           1.543114           4.897065
hessian_block                4       5          -0.487188           0.618507           0.204950           0.087530          -2.236167          -1.120745          -0.031256          -1.388610          -0.648125
hessian_block                4       6          -0.023346           0.426385           0.119560          -0.235551          -0.436088          -0.268012           0.272704          -0.345266          -0.106111
hessian_block                4       7          -2.016411          -0.898647           0.698696          -0.187735          -0.176299           0.311960           0.736242          -0.096804          -0.595703
hessian_block                4       8          -0.290619          -0.220560          -0.182417           0.031345          -0.514677          -0.128627          -0.217052          -0.007342          -0.001995
hessian_block                4       9          -0.276079           0.646832           0.146890           0.137121          -2.235875          -1.008124           0.044010          -0.776203          -0.547604
hessian_block                4      10          -0.429709          -0.405469          -0.158670          -0.144975           0.819026           0.370061           0.092498           0.589713           0.295271
hessian_block                4      11          -1.811764          -0.062439           0.860211          -0.847669          -1.313016          -0.217315           0.895591          -0.016353          -0.528591
hessian_block                4      12          -0.110467           0.331442          -0.044802           0.434978           0.475354           0.214405           0.110857           0.357717           0.095573
hessian_block                5       5           5.365692          -0.397667          -1.204783          -0.397667           6.249475          -0.933730          -1.204783          -0.933730           7.716833
hessian_block                5       6           0.262593          -0.381149          -0.392051           0.192101          -0.192307           0.381414           0.098883          -0.465209           0.464364
hessian_block                5       7          -0.381747           1.118096           0.053495          -0.931194           0.068408           0.370379           0.573206           0.544107          -1.053608
hessian_block                5       8           0.141986           0.202905           0.432005           0.510738          -0.030638          -0.507945           0.467453           0.520149          -0.844964
hessian_block                5       9          -1.358982          -0.381599           1.711140          -0.393782          -1.861695           2.129971           1.912372           2.213657          -3.470883
hessian_block                5      10          -0.152219           0.542634           0.460804           0.011164           0.011706          -0.453946           0.148093          -0.167722          -0.847768
hessian_block                5      11           0.521441          -0.891621           0.021389           1.071547           0.129781          -0.065249          -0.670412          -0.141957           1.245563
hessian_block                5      12           0.373061           0.225771          -0.476754          -0.427705          -0.562393           0.163156          -0.039055          -0.872000           0.607120
hessian_block                6       6           5.668835           0.401853           1.830791           0.401853           5.749286           1.774419           1.830791           1.774419           8.572906
hessian_block                6       7          -0.032572          -0.149226          -0.073278           0.471586           0.197186           0.795776           0.055447           0.125523          -0.169439
hessian_block                6       8          -0.136417           0.359380           0.144375           0.131103           0.239664           0.370359          -0.062481          -0.204010          -0.732209
hessian_block                6       9           0.082859           0.133689           0.017865           0.278008           0.783062           0.204817           0.169486           0.005221          -0.485987
hessian_block                6      10          -1.958526          -1.307493          -2.840237          -1.035736          -1.990235          -2.979249          -2.074641          -2.412450          -4.268561
hessian_block                6      11           0.208257           0.332707          -0.119556          -0.717280           0.532074           0.168780          -0.385204           0.192621           0.524095
hessian_block                6      12           0.483002           0.140742           0.305167           0.097711          -0.162132           0.215206           0.546990           0.315314           0.782291
hessian_block                7       7           5.445342           0.501895           1.111610           0.501895           6.107468          -1.517630           1.111610          -1.517630           7.951087
hessian_block                7       8          -0.021294          -0.123820           0.040021           0.038421          -0.406026           0.950182           0.306732          -0.639912           1.069051
hessian_block                7       9           0.388175           0.601011          -0.242809          -0.671683          -0.408331          -0.371964           0.285141          -0.506776           1.430995
hessian_block                7      10           0.273980          -0.601483          -0.180479           0.104539          -0.356403          -0.511929          -0.408890          -0.886370           0.253681
hessian_block                7      11          -1.854113           0.453488          -1.688223           0.650578          -2.373362           2.968961          -1.493916           2.226913          -3.527998
hessian_block                7      12           0.084979          -0.056171           0.524858          -0.457504           0.514800          -0.705220          -0.587588           0.390172          -1.076699
hessian_block                8       8           4.766232           0.089313          -0.913807           0.089313           5.680711           1.448052          -0.913807           1.448052           7.213213
hessian_block                8       9           0.239761          -0.502348          -0.207669           0.142206           0.182292          -0.275763           0.050632           0.574583           1.069470
hessian_block                8      10           0.069645          -0.218834           0.257882          -0.605454          -0.504519           0.327330          -0.401383          -0.099120           0.671503
hessian_block                8      11           0.164500          -0.163023          -0.185897           0.594810           1.191557           0.694047           0.323841          -0.671708          -0.985525
hessian_block                8      12          -0.746659           1.054372           1.722116           0.854485          -1.573788          -2.147096           1.343718          -1.968413          -3.201000
hessian_block                9       9           5.034193          -0.535408          -0.798242          -0.535408           6.451287          -1.422021          -0.798242          -1.422021           7.793430
hessian_block                9      10          -0.036491           0.239286          -0.159547          -0.214433          -0.079213          -0.117429          -0.399855          -0.147621           0.470028
hessian_block                9      11          -0.197184           0.861437          -0.109439          -0.701276           0.506007           0.805026           0.416819           0.181534          -1.160413
hessian_block                9      12           0.127962          -0.238192           0.674309           0.202981          -0.230193          -0.563564          -0.013529           0.662614          -0.975426
hessian_block               10      10           5.852426           0.589936           1.695780           0.589936           6.820350           2.312431           1.695780           2.312431           8.250900
hessian_block               10      11          -0.147200           0.019791           0.388439           0.356608          -1.350425          -0.115625           0.156016          -0.498984          -0.750612
hessian_block               10      12          -0.553369          -0.171087          -0.206548          -0.453813          -0.056144          -0.012678          -0.493916           0.024390          -0.568326
hessian_block               11      11           5.465854           0.313311           0.838425           0.313311           7.949348          -1.413339           0.838425          -1.413339           7.638185
hessian_block               11      12           0.103011           0.102553          -0.463420           0.295208          -0.862556           0.536283           0.571908          -0.837529           0.665750
hessian_block               12      12           4.920638           0.027711          -0.929915           0.027711           5.611857           1.456418          -0.929915           1.456418           7.383751
hessian_block_lv             1       1          23.170770          -3.804625           4.799077          -3.804625          23.516749           2.373086           4.799077           2.373086           1.911223
hessian_block_lv_atom        1       1           0.251011           0.396401           0.060569          -0.359207          -0.553174          -0.154891          -0.004317          -0.168589           0.047695
hessian_block_lv_atom        1       2          -0.478414          -0.839111          -0.209245           0.161625          -0.211286           0.005178          -0.016579          -0.329119          -0.115943
hessian_block_lv_atom        1       3          -0.558017          -0.966869          -0.244287           0.263621           0.499036           0.117507          -0.018401          -0.377255          -0.008438
hessian_block_lv_atom        1       4           0.088856           0.105383          -0.004685           0.732050           0.774231           0.259981           0.027380          -0.073029          -0.048940
hessian_block_lv_atom        1       5           0.278395           0.435748           0.370347           0.155452           0.024752           0.269152          -1.823451          -2.765061          -1.468849
hessian_block_lv_atom        1       6           0.099127          -0.103229          -0.293590          -0.456337          -0.235521          -0.321636          -1.789423          -2.378954          -1.386347
hessian_block_lv_atom        1       7          -0.533053          -0.801462           0.122040          -0.706037          -0.977589          -0.535677           1.383433           2.519724           1.334569
hessian_block_lv_atom        1       8          -0.040447           0.205127          -0.241008           0.069974           0.227321           0.274658           1.587083           2.310769           1.363417
hessian_block_lv_atom        1       9           0.100411           0.193468          -0.212011          -0.625636          -0.455648          -0.399525           1.680703           2.799990           1.416442
hessian_block_lv_atom        1      10          -0.247779           0.008109           0.313764           0.465505           0.079071           0.334692           1.969156           2.871141           1.515050
hessian_block_lv_atom        1      11           0.547050           0.913295          -0.065215           0.285785           0.851252           0.401710          -1.580246          -2.532536          -1.423993
hessian_block_lv_atom        1      12           0.492863           0.453141           0.403321           0.013205          -0.022444          -0.251151          -1.415339          -1.877079          -1.224661
symmetry_n_params 39 3 36
symmetry_params a1 b2 c3 x0 x1 x2 x3 x4 x5 x6 x7 x8 x9 x10 x11 x12 x13 x14 x15 x16 x17 x18 x19 x20 x21 x22 x23 x24 x25 x26 x27 x28 x29 x30 x31 x32 x33 x34 x35
symmetry_lv a1 , 0 , 0 
symmetry_lv 0 , b2 , 0 
symmetry_lv 0 , 0 , c3
symmetry_frac x0 , x1 , x2
symmetry_frac x3 , x4 , x5
symmetry_frac x6 , x7 , x8
symmetry_frac x9 , x10 , x11
symmetry_frac x12 , x13 , x14
symmetry_frac x15 , x16 , x17
symmetry_frac x18 , x19 , x20
symmetry_frac x21 , x22 , x23
symmetry_frac x24 , x25 , x26
symmetry_frac x27 , x28 , x29
symmetry_frac x30 , x31 , x32
symmetry_frac x33 , x34 , x35
