# 
# This is the geometry file that corresponds to the current relaxation step.
# If you do not want this file to be written, set the "write_restart_geometry" flag to .false.
#  aims_uuid : 08037296-3FD1-4E99-AF31-C5168DEA9506                                
# 
lattice_vector      5.85301746      0.00000000      0.00000000
lattice_vector      0.00000000      5.95939787      0.00000000
lattice_vector      0.00000000      0.00000000      7.45738147
atom_frac       0.50230424      0.00237993      0.00207302 Pd
atom_frac       0.00236968      0.00238650      0.50274765 Pd
atom_frac       0.00249984      0.50236431      0.00214439 Pd
atom_frac       0.50242246      0.50238139      0.50267270 Pd
atom_frac       0.61460027      0.12069223      0.40521884 Se
atom_frac       0.89031672      0.88415297      0.90498040 Se
atom_frac       0.11454889      0.38416634      0.59982723 Se
atom_frac       0.39030111      0.62065832      0.09960480 Se
atom_frac       0.39031134      0.88420134      0.59982975 Se
atom_frac       0.11456138      0.12071959      0.09961809 Se
atom_frac       0.89021209      0.62065715      0.40522132 Se
atom_frac       0.61447782      0.38416579      0.90498769 Se
# 
# What follows is the current estimated Hessian matrix constructed by the BFGS algorithm.
# This is NOT the true Hessian matrix of the system.
# If you do not want this information here, switch it off using the "hessian_to_restart_geometry" keyword.
# 
trust_radius             0.0244197096
hessian_block                1       1           5.935471           0.119777          -2.167683           0.119777           6.228462          -1.151411          -2.167683          -1.151411           4.758842
hessian_block                1       2           0.024811           0.297765          -0.049438           0.354328           0.106058          -0.219008          -0.016134          -0.081978          -0.072966
hessian_block                1       3           0.016311           0.297427          -0.085665          -0.061715          -0.111319           0.119420          -0.126471          -0.006397          -0.045228
hessian_block                1       4           0.500822           0.215363          -0.081361           0.091377          -0.388183          -0.162298           0.070383          -0.015755          -0.022717
hessian_block                1       5          -0.081446          -0.326945          -0.143549          -0.315005           0.175190           0.264007          -0.219569           0.141797           0.198289
hessian_block                1       6          -1.841803           0.164940           0.725677           0.374883          -0.264340          -0.154191           1.217367          -0.109383          -0.385534
hessian_block                1       7          -0.332298           0.203846           0.194375           0.105529           0.194234           0.110142           0.095612           0.123573           0.052781
hessian_block                1       8          -0.210301          -0.484263           0.378138          -0.386897          -1.812859           0.806034           0.077062           0.773043          -0.497273
hessian_block                1       9          -0.126233           0.016589           0.198949          -0.431516          -0.343582          -0.082139          -0.031087          -0.084015           0.037300
hessian_block                1      10          -2.228447           0.635085           0.928607           0.106183          -0.559929          -0.466035           0.750359          -0.457098          -0.613389
hessian_block                1      11           0.017220          -0.408949          -0.124190           0.200721           0.270004           0.093690           0.085156           0.234894           0.188647
hessian_block                1      12          -0.108197          -0.730636           0.226140          -0.157664          -1.846710           0.841790           0.265008           0.632731          -0.496885
hessian_block                2       2           5.891187           0.223446           2.286374           0.223446           7.180782           1.916154           2.286374           1.916154           5.140082
hessian_block                2       3           0.665272           0.707793           0.438684          -0.414824          -0.476646          -0.318692           0.049597           0.017942           0.106516
hessian_block                2       4           0.230903           0.663576           0.205515          -0.413386           0.705575           0.430444           0.060378           0.487775           0.222220
hessian_block                2       5          -1.963255           0.169717          -0.914855           0.364816          -0.702848          -0.089998          -0.716349          -0.256497          -0.698561
hessian_block                2       6          -0.323773          -0.010785           0.076232          -0.143416          -0.829477          -0.410413          -0.083204          -0.309351          -0.339494
hessian_block                2       7          -0.120247          -0.726853          -0.357163          -0.438350          -1.599955          -0.788062          -0.309874          -1.351986          -0.784214
hessian_block                2       8          -0.246058          -0.673671          -0.421248           0.179279          -0.297895          -0.182960          -0.103996          -0.217264          -0.019245
hessian_block                2       9          -2.055977           0.307448          -1.019254           0.673639          -0.818552           0.201062          -1.130967          -0.114032          -0.650243
hessian_block                2      10           0.292092          -0.227340           0.030722           0.111788           0.906641           0.801901           0.154746           0.724513           0.544561
hessian_block                2      11          -0.419898          -0.632361          -0.203247          -0.413580          -3.150777          -1.700519          -0.126765          -0.942706          -0.579341
hessian_block                2      12          -0.409143          -0.155299          -0.105625          -0.027178           0.624118           0.223062          -0.030497           0.264462           0.232550
hessian_block                3       3           6.304734          -0.523668           2.237517          -0.523668           6.300399          -1.254462           2.237517          -1.254462           4.736008
hessian_block                3       4           0.383467          -0.287581          -0.017792          -0.162034           0.104142          -0.008526           0.202090          -0.152777           0.063519
hessian_block                3       5          -0.411917           0.119423          -0.194957          -0.335624           0.443853           0.123734           0.028350           0.136651           0.138628
hessian_block                3       6          -0.512510           0.460930          -0.357111           0.124961          -1.763766           0.830044          -0.581225           0.861788          -0.606668
hessian_block                3       7          -0.037521           0.126937           0.135144           0.196048          -0.113057           0.116747          -0.361216           0.152364          -0.142768
hessian_block                3       8          -2.234509          -0.168229          -0.879079          -0.556589          -0.337591          -0.402017          -1.010839          -0.163315          -0.523019
hessian_block                3       9          -0.344062           0.365218           0.099930           0.049195          -0.183163           0.005676          -0.511497           0.323742          -0.062444
hessian_block                3      10           0.235008           0.529714           0.017950           1.054194          -2.192770           1.065970           0.224071           0.625628          -0.355075
hessian_block                3      11          -0.258687           0.094245          -0.069147          -0.471239           0.242052          -0.263216           0.153285           0.079207           0.136781
hessian_block                3      12          -2.239676          -0.240450          -0.895582          -0.380468          -0.265111          -0.225494          -0.733555          -0.409555          -0.344385
hessian_block                4       4           5.961096           0.186358          -1.951205           0.186358           6.952600           1.549054          -1.951205           1.549054           4.899742
hessian_block                4       5          -0.478807           0.613468           0.213054           0.133962          -2.150037          -1.099383          -0.023650          -1.352779          -0.649108
hessian_block                4       6          -0.087241           0.301552           0.091467          -0.300372          -0.556327          -0.297834           0.217033          -0.448301          -0.131771
hessian_block                4       7          -1.975495          -0.820781           0.717113          -0.209519          -0.210720           0.300702           0.707330          -0.168408          -0.605296
hessian_block                4       8          -0.349923          -0.311112          -0.213715           0.040767          -0.514136          -0.120798          -0.215816          -0.014508           0.000526
hessian_block                4       9          -0.304945           0.606580           0.130867           0.084320          -2.328680          -1.033476           0.027066          -0.831422          -0.550491
hessian_block                4      10          -0.361742          -0.271390          -0.129052          -0.067648           0.955826           0.407006           0.127804           0.649193           0.312754
hessian_block                4      11          -1.865252          -0.164497           0.836189          -0.864445          -1.349857          -0.223852           0.911923           0.029072          -0.524199
hessian_block                4      12          -0.086975           0.343863          -0.027566           0.405218           0.426824           0.199336           0.093156           0.328482           0.086687
hessian_block                5       5           5.335458          -0.240866          -1.117331          -0.240866           6.264868          -1.093730          -1.117331          -1.093730           7.567872
hessian_block                5       6           0.028876          -0.355115          -0.136214          -0.026796          -0.213800           0.604775          -0.088457          -0.485398           0.654889
hessian_block                5       7          -0.237977           1.116930          -0.098621          -0.987733           0.016384           0.411607           0.424463           0.668996          -0.852412
hessian_block                5       8          -0.002961           0.037679           0.526416           0.494397           0.099198          -0.444705           0.444730           0.591334          -0.795768
hessian_block                5       9          -1.418662          -0.490625           1.735488          -0.557479          -1.917643           2.282881           1.787509           2.386022          -3.278066
hessian_block                5      10           0.100061           0.505294           0.181374           0.253419           0.087010          -0.682890           0.250227          -0.111041          -0.935458
hessian_block                5      11           0.332738          -0.888108           0.221749           0.998621           0.167041           0.024901          -0.572238          -0.249741           1.103786
hessian_block                5      12           0.363801           0.466661          -0.381643          -0.509227          -0.622192           0.227992          -0.088595          -0.904802           0.647772
hessian_block                6       6           5.559922           0.365515           1.802261           0.365515           5.779296           1.802609           1.802261           1.802609           8.599180
hessian_block                6       7           0.013171          -0.147602          -0.073501           0.528721           0.269813           0.858681          -0.168919          -0.048820          -0.317248
hessian_block                6       8           0.055657           0.590043           0.343771          -0.059757           0.058411           0.215138          -0.171342          -0.303385          -0.817156
hessian_block                6       9           0.220626           0.285892           0.149033           0.307912           0.861171           0.273626          -0.115518          -0.235400          -0.690890
hessian_block                6      10          -1.827740          -1.255373          -2.798384          -1.069264          -2.095367          -3.072110          -2.124466          -2.491581          -4.337554
hessian_block                6      11           0.145381           0.327808          -0.121636          -0.792971           0.480060           0.125003          -0.200824           0.343087           0.652000
hessian_block                6      12           0.135348          -0.195545           0.016942           0.158317          -0.078650           0.287699           0.578757           0.361108           0.822111
hessian_block                7       7           5.430544           0.460562           1.238042           0.460562           6.145590          -1.526400           1.238042          -1.526400           7.723776
hessian_block                7       8          -0.155879          -0.012815           0.042392           0.156635          -0.455370           0.834608           0.372861          -0.662962           0.993669
hessian_block                7       9           0.295928           0.663797          -0.209845          -0.706294          -0.337404          -0.471229           0.451944          -0.542274           1.187489
hessian_block                7      10           0.216305          -0.659308           0.068916           0.149027          -0.458246          -0.359180          -0.367732          -0.939695           0.298625
hessian_block                7      11          -1.832910           0.506914          -1.855716           0.691029          -2.367675           2.876219          -1.600144           2.243266          -3.358184
hessian_block                7      12           0.302293          -0.153847           0.328814          -0.503434           0.563429          -0.729736          -0.612321           0.418249          -1.094356
hessian_block                8       8           5.086065          -0.038924          -0.971107          -0.038924           5.674332           1.433231          -0.971107           1.433231           7.198763
hessian_block                8       9           0.416815          -0.557378          -0.228952           0.358830           0.044576          -0.347833          -0.022104           0.481238           1.002387
hessian_block                8      10          -0.127463          -0.013318           0.375910          -0.917741          -0.301121           0.434407          -0.560635          -0.012011           0.715242
hessian_block                8      11           0.338955          -0.318076          -0.272805           0.622498           1.133589           0.658439           0.350334          -0.596806          -0.934343
hessian_block                8      12          -1.004484           1.059861           1.704295           0.997706          -1.644109          -2.181189           1.426837          -2.010953          -3.221917
hessian_block                9       9           5.127800          -0.401444          -0.804678          -0.401444           6.553248          -1.579096          -0.804678          -1.579096           7.550291
hessian_block                9      10          -0.180534           0.217096           0.153392          -0.408900          -0.221920           0.119322          -0.494436          -0.235016           0.555543
hessian_block                9      11          -0.077108           0.904701          -0.329510          -0.673007           0.483517           0.699387           0.407869           0.274741          -0.985152
hessian_block                9      12           0.012264          -0.498959           0.525457           0.285827          -0.144539          -0.623473           0.035029           0.710803          -1.013860
hessian_block               10      10           5.697082           0.611281           1.743026           0.611281           7.019498           2.436463           1.743026           2.436463           8.320836
hessian_block               10      11          -0.068459          -0.035416           0.335821           0.442112          -1.314059          -0.110553          -0.047484          -0.640551          -0.798219
hessian_block               10      12          -0.180252           0.213075          -0.038782          -0.513853          -0.178539          -0.078801          -0.524976          -0.044304          -0.606005
hessian_block               11      11           5.435692           0.259402           0.978813           0.259402           7.913741          -1.341694           0.978813          -1.341694           7.513822
hessian_block               11      12          -0.181760           0.000858          -0.339928           0.354338          -0.860615           0.567231           0.603678          -0.837805           0.686270
hessian_block               12      12           4.962693          -0.109586          -1.012525          -0.109586           5.673113           1.491583          -1.012525           1.491583           7.403883
hessian_block_lv             1       1          23.204868          -3.764718           4.801490          -3.764718          23.376000           2.371969           4.801490           2.371969           1.911311
hessian_block_lv_atom        1       1           0.310384           0.310931           0.061513          -0.489602          -0.354498          -0.156734          -0.056568          -0.078644           0.047174
hessian_block_lv_atom        1       2          -0.637230          -0.615920          -0.211884          -0.032715           0.031654           0.001314          -0.127688          -0.206794          -0.118500
hessian_block_lv_atom        1       3          -0.796119          -0.646764          -0.248549           0.314997           0.436862           0.118572          -0.164932          -0.177052          -0.010993
hessian_block_lv_atom        1       4           0.067137           0.114611          -0.005494           0.720950           0.756717           0.259100           0.011365          -0.061638          -0.049440
hessian_block_lv_atom        1       5           0.288047           0.368434           0.369377          -0.070129           0.286922           0.264250          -1.913553          -2.601153          -1.469562
hessian_block_lv_atom        1       6           0.424987          -0.499140          -0.286871          -0.141422          -0.601514          -0.314793          -1.519527          -2.691996          -1.380469
hessian_block_lv_atom        1       7          -0.736649          -0.559477           0.117729          -0.614854          -1.067245          -0.533353           1.567874           2.256391           1.337547
hessian_block_lv_atom        1       8           0.200065          -0.021380          -0.234667           0.065641           0.186208           0.273594           1.604222           2.265073           1.363248
hessian_block_lv_atom        1       9           0.208122           0.104509          -0.208909          -0.381687          -0.725164          -0.393930           1.821229           2.571849           1.418133
hessian_block_lv_atom        1      10          -0.597564           0.436435           0.306622           0.106074           0.478712           0.326501           1.812339           3.037013           1.511298
hessian_block_lv_atom        1      11           0.813858           0.595473          -0.059580           0.381290           0.724661           0.403457          -1.696611          -2.356069          -1.425655
hessian_block_lv_atom        1      12           0.454965           0.412288           0.400713           0.141458          -0.153314          -0.247982          -1.338151          -1.956977          -1.222778
