# 
# This is the geometry file that corresponds to the current relaxation step.
# If you do not want this file to be written, set the "write_restart_geometry" flag to .false.
#  aims_uuid : 62ADC231-20A1-4EF9-A57D-9F9515B9A295                                
# 
lattice_vector      5.83781673      0.00000000      0.00000000
lattice_vector      0.00000000      5.95035850      0.00000000
lattice_vector      0.00000000      0.00000000      7.51733338
atom_frac       0.50115183      0.00039837      0.00025894 Pd
atom_frac       0.00039610      0.00045742      0.50140021 Pd
atom_frac       0.00050674      0.50114971      0.00028597 Pd
atom_frac       0.50126412      0.50120920      0.50137434 Pd
atom_frac       0.61289841      0.11860882      0.40370233 Se
atom_frac       0.89031434      0.88377685      0.90435286 Se
atom_frac       0.11214430      0.38306301      0.59879358 Se
atom_frac       0.38943399      0.61939943      0.09790194 Se
atom_frac       0.38949445      0.88379373      0.59879860 Se
atom_frac       0.11213727      0.11868867      0.09792991 Se
atom_frac       0.89024528      0.61931157      0.40371303 Se
atom_frac       0.61290420      0.38303426      0.90437930 Se
# 
# What follows is the current estimated Hessian matrix constructed by the BFGS algorithm.
# This is NOT the true Hessian matrix of the system.
# If you do not want this information here, switch it off using the "hessian_to_restart_geometry" keyword.
# 
trust_radius             0.0122103589
hessian_block                1       1           6.401785          -1.110196          -2.623174          -1.110196           9.188435          -0.055337          -2.623174          -0.055337           5.200401
hessian_block                1       2          -1.141307           3.251217           1.082307          -0.603536           2.793735           0.891204          -0.583336           1.568429           0.573367
hessian_block                1       3          -1.624254           4.585313           1.564464           0.029815          -0.504390          -0.059189          -1.135393           2.629300           0.986252
hessian_block                1       4           0.522021           0.243793          -0.045681           0.454076          -1.076229          -0.336176           0.054771           0.097256           0.034966
hessian_block                1       5           0.654045          -2.335410          -0.908591          -1.821430           3.775633           1.574082          -0.036424          -0.460937          -0.049025
hessian_block                1       6           0.130409          -4.651682          -1.111776           2.214549          -4.955231          -1.948092           4.471459          -8.503396          -3.605408
hessian_block                1       7          -1.218947           2.385289           0.961780           0.552325          -0.831822          -0.282157          -0.010810           0.193970           0.010184
hessian_block                1       8           0.481479          -2.392916          -0.371753           0.012535          -2.897192           0.349304          -1.075664           3.556994           0.562764
hessian_block                1       9          -0.112349          -0.000195           0.180901           0.850240          -3.477809          -1.296711          -0.268460           0.393361           0.187648
hessian_block                1      10          -4.316859           5.945298           2.924385          -1.661439           4.261015           1.416229          -1.437988           5.342994           1.626004
hessian_block                1      11           1.296979          -3.541448          -1.273619           0.555771          -1.138752          -0.537819           0.296279          -0.390124          -0.027387
hessian_block                1      12           0.492908          -2.379064          -0.379241           0.527289          -3.490368           0.284664           2.348741          -4.372512          -2.397902
hessian_block                2       2           8.733360           2.720654           3.755257           2.720654           9.086552           2.949258           3.755257           2.949258           5.709495
hessian_block                2       3           4.725596           4.106999           2.410324          -0.698530          -0.596121          -0.335547           2.578640           2.209316           1.363440
hessian_block                2       4           0.194221           0.554867           0.100893          -1.167448          -0.192622          -0.198188           0.137793           0.440559           0.182934
hessian_block                2       5          -3.839576          -1.361979          -1.794970           3.985265           2.719343           2.023298          -1.270982          -0.685273          -0.923301
hessian_block                2       6          -5.103391          -4.460544          -2.580831          -4.694978          -4.757709          -2.736646          -8.205040          -7.441895          -4.521566
hessian_block                2       7           2.045230           1.247769           0.879065          -1.548739          -2.751750          -1.496971          -0.097580          -0.852749          -0.393255
hessian_block                2       8          -1.955014          -1.932863          -1.104605          -0.838134          -1.068632          -0.599709           2.714002           2.457777           1.593894
hessian_block                2       9          -2.054043           0.313467          -1.002303          -2.484666          -3.714574          -1.541392          -0.574228           0.595967          -0.180294
hessian_block                2      10           5.452496           4.384765           2.769426           4.600336           4.515795           2.840123           5.704682           5.460831           3.283572
hessian_block                2      11          -3.510227          -3.465262          -1.937632          -1.470814          -3.485414          -1.733589          -0.743735          -1.490105          -0.915685
hessian_block                2      12          -1.981432          -1.504338          -0.911287          -1.654162          -0.901578          -0.739064          -5.081118          -4.534894          -2.670738
hessian_block                3       3          12.006184          -0.855385           5.812322          -0.855385           6.221363          -1.492787           5.812322          -1.492787           6.980245
hessian_block                3       4           0.266698          -0.225836          -0.056933          -1.393809           0.291172          -0.701389           0.256252          -0.113619           0.113322
hessian_block                3       5          -3.010169           0.227883          -1.837377           4.976225          -0.091128           3.352137          -0.711578           0.174845          -0.332919
hessian_block                3       6          -7.425568           1.124382          -4.632145          -6.328866          -1.267594          -3.185613         -12.101203           1.762984          -7.769485
hessian_block                3       7           3.131789          -0.135601           2.052044          -1.474693           0.152366          -0.880207           0.097844          -0.051334           0.064746
hessian_block                3       8          -4.532981          -0.103889          -2.335761          -1.924189          -0.287121          -1.300884           3.076796          -0.604985           1.988474
hessian_block                3       9          -0.341889           0.369034           0.104318          -4.522026           0.255066          -2.825991           0.378143           0.128184           0.442815
hessian_block                3      10           7.612266          -0.068862           4.573103           7.260709          -2.498421           4.974499           8.016973           0.069630           4.512397
hessian_block                3      11          -4.767035           0.465137          -2.832477          -1.647570          -0.006813          -1.127032          -0.720338           0.163951          -0.384135
hessian_block                3      12          -4.474726          -0.128149          -2.290342          -2.782704          -0.021356          -1.651351          -8.080004           0.357867          -4.863289
hessian_block                4       4           5.896680           0.113318          -1.979792           0.113318           6.946259           1.433972          -1.979792           1.433972           4.865521
hessian_block                4       5          -0.414170           1.200840           0.206021           0.202297          -2.895198          -0.897055          -0.022531          -1.139069          -0.650269
hessian_block                4       6          -0.098942           1.368169          -0.135407          -0.241816           0.724552          -0.406491           0.294125           1.752249          -0.382256
hessian_block                4       7          -1.934519          -1.304153           0.811424          -0.291554          -0.056936           0.196002           0.843792           0.038471          -0.463870
hessian_block                4       8          -0.193406           0.398246          -0.193518           0.098595          -0.150382          -0.092335          -0.154772          -0.588597           0.161738
hessian_block                4       9          -0.280758           0.633155           0.124163           0.033985          -1.627891          -1.160538           0.112232          -0.809507          -0.435663
hessian_block                4      10          -0.401605          -1.594122           0.062382          -0.250742          -0.565532           0.427574           0.036283          -0.991020           0.432512
hessian_block                4      11          -1.893806           0.529643           0.706473          -0.614495          -0.552120          -0.025289           0.871462           0.194941          -0.557051
hessian_block                4      12          -0.096503           0.762083          -0.050563           0.377591           0.801951           0.099963           0.000923           1.344315          -0.200019
hessian_block                5       5           6.375274          -2.864100          -0.755963          -2.864100          10.441721          -1.824696          -0.755963          -1.824696           7.710395
hessian_block                5       6           3.407241          -6.035832           0.761354           3.071555          -5.879273           1.436365           5.299639         -10.679359           2.160319
hessian_block                5       7          -1.796709           3.643185          -0.537709          -0.043564          -1.029836           0.508742           0.128567           0.611023          -1.012356
hessian_block                5       8           1.161524          -2.209311           0.770505           1.002689          -1.415189          -0.234912          -1.517071           3.903684          -1.446783
hessian_block                5       9          -1.294723          -0.385048           1.694450           1.718746          -5.619256           2.947304           1.282568           2.845272          -3.485035
hessian_block                5      10          -3.429156           6.808521          -0.681640          -2.669003           5.975409          -1.400399          -3.370859           6.962801          -1.904643
hessian_block                5      11           2.535653          -4.577393           0.893385           1.315117          -1.907211           0.199976          -0.161017          -0.984080           1.242874
hessian_block                5      12           1.216676          -1.722378          -0.102868           0.737225          -2.427992           0.478056           3.429054          -6.887106           1.792609
hessian_block                6       6          13.148542           7.823419          15.170684           7.823419          12.867982          14.561851          15.170684          14.561851          31.291746
hessian_block                6       7          -3.441767          -3.558701          -6.259025           2.049639           1.863143           3.686886          -0.167466          -0.379872          -0.873450
hessian_block                6       8           2.856849           3.120716           5.017249           1.881855           1.739440           3.189235          -4.601418          -4.706269          -8.739043
hessian_block                6       9           0.076068           0.174361           0.053408           5.375025           5.757262           9.273899          -0.746491          -1.070324          -2.197381
hessian_block                6      10         -10.172580          -9.318321         -17.120908          -8.669695          -9.088210         -15.589321         -11.309805         -11.170402         -19.699353
hessian_block                6      11           5.147683           5.236366           8.800264           1.634641           2.243260           3.317843           0.738904           1.293145           2.288111
hessian_block                6      12           3.041367           2.501720           4.579347           2.560624           2.399399           4.669023           8.614398           8.312350          15.149633
hessian_block                7       7           6.877156          -0.220732           1.253085          -0.220732           6.197830          -1.248827           1.253085          -1.248827           7.457546
hessian_block                7       8          -1.499827           0.635749          -0.312311          -0.755595           0.142787           0.577068           2.399894          -1.444403           1.051875
hessian_block                7       9           0.352832           0.542022          -0.178971          -2.877181           0.652963          -0.565938           0.782012          -0.439054           1.066621
hessian_block                7      10           4.021684          -2.390251           0.197560           3.662210          -2.218771           0.258664           3.944426          -2.870183           0.779439
hessian_block                7      11          -3.978736           1.555983          -1.954251          -0.451611          -1.370311           2.031025          -2.047331           2.303332          -3.399975
hessian_block                7      12          -0.992277           0.633815           0.200542          -1.634878           0.897359          -0.611501          -4.239667           1.966841          -1.185641
hessian_block                8       8           5.700323           0.568033          -2.746995           0.568033           5.871627           0.299850          -2.746995           0.299850           9.911646
hessian_block                8       9           0.256848          -0.460810          -0.187727           2.211251           1.345638          -3.364838          -0.446254           0.131300           1.476518
hessian_block                8      10          -3.072886          -2.022604           5.207091          -3.147637          -1.855398           4.975486          -3.641336          -1.984049           6.159951
hessian_block                8      11           2.226942           0.947954          -3.253465           0.885329           1.135672          -0.933097           0.742650          -0.341875          -1.547739
hessian_block                8      12           0.136061           1.489671           0.139329           1.967291          -0.914226          -3.551600           4.622130           0.007008          -8.071432
hessian_block                9       9           4.999982          -0.511056          -0.740582          -0.511056           9.810071          -2.107116          -0.740582          -2.107116           7.564313
hessian_block                9      10          -0.058407          -5.331562           0.909097          -0.276854          -5.258768           1.118000          -0.421148          -6.442954           1.631289
hessian_block                9      11          -0.156772           4.111304          -0.859874          -0.580026           2.101489          -0.071681           0.397763           0.954350          -1.119855
hessian_block                9      12           0.179122           1.425941           0.171838           0.181950           1.422834          -0.714403          -0.024270           6.129928          -1.849113
hessian_block               10      10          14.729652           8.617053          11.487620           8.617053          13.541467          10.799496          11.487620          10.799496          18.645060
hessian_block               10      11          -5.575815          -5.054251          -5.876448          -1.808486          -2.416409          -2.064516          -0.993866          -1.564123          -1.884997
hessian_block               10      12          -3.222881          -2.410690          -3.132400          -3.221428          -2.745153          -3.112629          -9.334251          -8.256231         -10.479368
hessian_block               11      11           8.569585           1.798238           1.681567           1.798238           6.863132          -0.972333           1.681567          -0.972333           7.616028
hessian_block               11      12           1.671460           0.383912          -0.062339           1.993729           0.180500           0.832922           5.906080           1.916514           1.791676
hessian_block               12      12           5.596136           0.947475           1.837984           0.947475           6.445652           4.015922           1.837984           4.015922          16.085450
hessian_block_lv             1       1          26.741101          -1.549515           7.161581          -1.549515          24.899161           3.909020           7.161581           3.909020           3.547866
hessian_block_lv_atom        1       1          -1.479456          -0.834533          -0.936705           3.646666           2.512215           2.388536           1.697727           1.121609           0.984461
hessian_block_lv_atom        1       2           3.748132           2.341704           2.328485           4.532263           2.859581           2.286063           2.449528           1.376881           1.264472
hessian_block_lv_atom        1       3           5.550429           3.510023           3.354210          -0.686207          -0.166787          -0.269854           3.782042           2.402178           2.192642
hessian_block_lv_atom        1       4           0.194444           0.155008           0.013935           0.123477           0.100513          -0.396324           0.382225           0.128612           0.064953
hessian_block_lv_atom        1       5          -2.696027          -1.717696          -1.300809           4.646310           3.460565           3.306704          -2.397638          -2.957682          -1.813831
hessian_block_lv_atom        1       6          -6.074575          -4.704059          -4.252303          -6.685705          -4.789590          -4.182793         -12.562708         -10.014391          -8.065796
hessian_block_lv_atom        1       7           2.510694           1.543096           2.036260          -1.518516          -1.486538          -1.243745           0.733954           2.025787           1.284602
hessian_block_lv_atom        1       8          -2.550689          -1.514891          -1.744736          -1.781617          -1.112579          -0.651315           5.031387           4.782672           3.592722
hessian_block_lv_atom        1       9           0.200631           0.260525          -0.214580          -5.106780          -3.785845          -3.123819           1.633612           2.676964           1.670327
hessian_block_lv_atom        1      10           6.489008           4.892255           4.566928           7.024494           4.710215           4.204926           9.210928           7.834602           5.982516
hessian_block_lv_atom        1      11          -3.948958          -2.572048          -2.858032          -2.652124          -1.118420          -0.797199          -2.026535          -2.663054          -1.764648
hessian_block_lv_atom        1      12          -1.943631          -1.359381          -0.992654          -1.542264          -1.183331          -1.521180          -7.934521          -6.714180          -5.392423
symmetry_n_params 39 3 36
symmetry_params a1 b2 c3 x0 x1 x2 x3 x4 x5 x6 x7 x8 x9 x10 x11 x12 x13 x14 x15 x16 x17 x18 x19 x20 x21 x22 x23 x24 x25 x26 x27 x28 x29 x30 x31 x32 x33 x34 x35
symmetry_lv a1 , 0 , 0 
symmetry_lv 0 , b2 , 0 
symmetry_lv 0 , 0 , c3
symmetry_frac x0 , x1 , x2
symmetry_frac x3 , x4 , x5
symmetry_frac x6 , x7 , x8
symmetry_frac x9 , x10 , x11
symmetry_frac x12 , x13 , x14
symmetry_frac x15 , x16 , x17
symmetry_frac x18 , x19 , x20
symmetry_frac x21 , x22 , x23
symmetry_frac x24 , x25 , x26
symmetry_frac x27 , x28 , x29
symmetry_frac x30 , x31 , x32
symmetry_frac x33 , x34 , x35
