# 
# This is the geometry file that corresponds to the current relaxation step.
# If you do not want this file to be written, set the "write_restart_geometry" flag to .false.
#  aims_uuid : 93B6AB64-78B6-4373-AB6C-5CF3C6B0816A                                
# 
lattice_vector      5.85434320      0.00000000      0.00000000
lattice_vector      0.00000000      5.95875971      0.00000000
lattice_vector      0.00000000      0.00000000      7.43247080
atom_frac       0.50244011      0.00211145      0.00195696 Pd
atom_frac       0.00209210      0.00209254      0.50265105 Pd
atom_frac       0.00216876      0.50247649      0.00199918 Pd
atom_frac       0.50251146      0.50245771      0.50260876 Pd
atom_frac       0.61431912      0.12008294      0.40430955 Se
atom_frac       0.89103552      0.88487912      0.90453369 Se
atom_frac       0.11391725      0.38457084      0.60076948 Se
atom_frac       0.39063765      0.62040983      0.10029076 Se
atom_frac       0.39068074      0.88492667      0.60076896 Se
atom_frac       0.11394271      0.12009233      0.10030940 Se
atom_frac       0.89100881      0.62041699      0.40430915 Se
atom_frac       0.61430493      0.38454226      0.90455220 Se
# 
# What follows is the current estimated Hessian matrix constructed by the BFGS algorithm.
# This is NOT the true Hessian matrix of the system.
# If you do not want this information here, switch it off using the "hessian_to_restart_geometry" keyword.
# 
trust_radius             0.0122103589
hessian_block                1       1           6.037563           0.062496          -2.234624           0.062496           6.372539          -1.073015          -2.234624          -1.073015           4.816500
hessian_block                1       2          -0.059560           0.442023           0.045083           0.207680           0.153806          -0.081346          -0.072724          -0.087406          -0.017036
hessian_block                1       3          -0.098762           0.470623           0.047846           0.021376          -0.129074           0.065349          -0.212149           0.097377           0.049298
hessian_block                1       4           0.554819           0.197214          -0.107159           0.077219          -0.497775          -0.156453           0.039490          -0.050143          -0.006384
hessian_block                1       5          -0.008983          -0.440684          -0.215976          -0.365169           0.295413           0.360189          -0.277339           0.318991           0.243792
hessian_block                1       6          -1.812096           0.000768           0.621642           0.384043          -0.345635          -0.247011           1.298739          -0.159023          -0.529174
hessian_block                1       7          -0.435940           0.309572           0.289496           0.144923           0.192599           0.050087           0.191075          -0.024196          -0.040461
hessian_block                1       8          -0.219142          -0.509414           0.357262          -0.363264          -1.851312           0.783249           0.053532           0.711565          -0.478976
hessian_block                1       9          -0.148523           0.029488           0.207741          -0.335712          -0.382972          -0.206965           0.077236          -0.252894          -0.052089
hessian_block                1      10          -2.337729           0.822012           1.079010           0.049671          -0.496002          -0.345742           0.740025          -0.488406          -0.536940
hessian_block                1      11           0.101622          -0.540308          -0.224360           0.280056           0.256484           0.038199           0.054572           0.380719           0.223943
hessian_block                1      12          -0.007360          -0.843792           0.134039          -0.163321          -1.921046           0.813462           0.342167           0.626430          -0.570609
hessian_block                2       2           6.021691           0.349825           2.310378           0.349825           7.441598           1.996806           2.310378           1.996806           5.150670
hessian_block                2       3           0.832006           0.863434           0.456595          -0.448072          -0.643190          -0.384130           0.159839           0.165751           0.139060
hessian_block                2       4           0.179258           0.568522           0.152898          -0.456988           0.763995           0.459937           0.066752           0.548218           0.251770
hessian_block                2       5          -2.074704           0.024233          -0.963567           0.457144          -0.708453          -0.160902          -0.568721          -0.137732          -0.631983
hessian_block                2       6          -0.471266          -0.069340           0.102855          -0.234856          -0.795412          -0.323494          -0.192309          -0.421485          -0.305634
hessian_block                2       7          -0.013263          -0.588444          -0.331515          -0.484567          -1.657269          -0.794004          -0.456938          -1.530502          -0.848783
hessian_block                2       8          -0.220592          -0.527193          -0.307141           0.105097          -0.368890          -0.221486          -0.127072          -0.249662          -0.055695
hessian_block                2       9          -2.021975           0.389572          -0.970395           0.582195          -0.940852           0.207481          -1.303243          -0.337677          -0.752678
hessian_block                2      10           0.478292          -0.048736           0.050312           0.182102           0.962729           0.741689           0.173507           0.725698           0.481088
hessian_block                2      11          -0.527855          -0.739438          -0.200750          -0.447799          -3.288896          -1.742848          -0.021114          -0.882194          -0.550969
hessian_block                2      12          -0.556118          -0.430116          -0.226944          -0.046105           0.727860           0.308357          -0.086163           0.204123           0.242055
hessian_block                3       3           6.512240          -0.578628           2.378387          -0.578628           6.374923          -1.311865           2.378387          -1.311865           4.840485
hessian_block                3       4           0.309864          -0.226479          -0.072380          -0.222594           0.024453          -0.016133           0.208891          -0.211815           0.082550
hessian_block                3       5          -0.562750           0.156192          -0.298429          -0.271293           0.441662           0.181302           0.246874           0.142336           0.257107
hessian_block                3       6          -0.689265           0.455309          -0.476706           0.055193          -1.753567           0.777452          -0.675968           0.965127          -0.711571
hessian_block                3       7           0.087568           0.063894           0.228020           0.174658          -0.041632           0.064431          -0.568537           0.203966          -0.275943
hessian_block                3       8          -2.165591          -0.221195          -0.821782          -0.668456          -0.302055          -0.468758          -1.073126          -0.211956          -0.539365
hessian_block                3       9          -0.285810           0.334813           0.142746          -0.020125          -0.071309          -0.091323          -0.764947           0.384308          -0.218434
hessian_block                3      10           0.460244           0.469565           0.183268           1.097473          -2.241568           1.119101           0.205969           0.571849          -0.336069
hessian_block                3      11          -0.383906           0.122805          -0.156770          -0.535262           0.309772          -0.310207           0.309222           0.108444           0.218302
hessian_block                3      12          -2.449929          -0.149581          -1.054047          -0.365021          -0.321392          -0.207129          -0.771210          -0.321615          -0.403558
hessian_block                4       4           5.974783           0.167923          -1.969436           0.167923           7.042010           1.588098          -1.969436           1.588098           4.923197
hessian_block                4       5          -0.446314           0.612526           0.196734           0.064767          -2.271137          -1.136719          -0.033361          -1.405094          -0.652360
hessian_block                4       6          -0.067773           0.400314           0.132401          -0.275273          -0.439398          -0.249169           0.285644          -0.420699          -0.127005
hessian_block                4       7          -2.052170          -0.843489           0.738873          -0.170687          -0.196101           0.296421           0.758913          -0.154980          -0.630577
hessian_block                4       8          -0.304824          -0.200387          -0.179176           0.025541          -0.512871          -0.116216          -0.243296          -0.031213          -0.009909
hessian_block                4       9          -0.296557           0.644700           0.144516           0.177964          -2.306115          -1.044506           0.067897          -0.830674          -0.586069
hessian_block                4      10          -0.437222          -0.330914          -0.128832          -0.150463           0.915022           0.411040           0.106506           0.636444           0.300323
hessian_block                4      11          -1.790646          -0.117559           0.828386          -0.809483          -1.419203          -0.275161           0.900849          -0.027393          -0.536524
hessian_block                4      12          -0.057306           0.269246          -0.078600           0.430457           0.544145           0.239950           0.152927           0.358163           0.092854
hessian_block                5       5           5.318395          -0.414227          -1.192817          -0.414227           6.301407          -0.911454          -1.192817          -0.911454           7.651221
hessian_block                5       6           0.274158          -0.326739          -0.376494           0.161384          -0.097191           0.341150           0.082090          -0.372494           0.407154
hessian_block                5       7          -0.417906           1.130181           0.033489          -0.856583           0.027282           0.338450           0.524794           0.576015          -0.976584
hessian_block                5       8           0.117321           0.255670           0.405822           0.467352           0.018507          -0.497497           0.418986           0.555973          -0.801127
hessian_block                5       9          -1.339871          -0.357910           1.705535          -0.345536          -1.887197           2.149095           1.886468           2.236327          -3.392137
hessian_block                5      10          -0.162367           0.501477           0.453851           0.074742          -0.090114          -0.439175           0.175073          -0.278188          -0.766000
hessian_block                5      11           0.529774          -0.884159           0.058151           0.972447           0.216152          -0.010431          -0.637143          -0.132442           1.172229
hessian_block                5      12           0.339156           0.210258          -0.454992          -0.411847          -0.599308           0.111362           0.023788          -0.917604           0.590554
hessian_block                6       6           5.633690           0.368004           1.813858           0.368004           5.632278           1.610197           1.813858           1.610197           8.498325
hessian_block                6       7           0.063614          -0.088544          -0.065980           0.442094           0.137245           0.823404           0.056196           0.132156          -0.113577
hessian_block                6       8          -0.116590           0.353725           0.100441           0.150393           0.202873           0.341129          -0.036619          -0.116173          -0.700616
hessian_block                6       9           0.071414           0.146815           0.026780           0.209183           0.677801           0.209729           0.139038           0.015016          -0.426859
hessian_block                6      10          -1.906432          -1.241545          -2.849775          -1.029226          -1.902756          -2.903515          -2.076937          -2.279658          -4.145478
hessian_block                6      11           0.126046           0.286083          -0.135873          -0.678262           0.526155           0.203322          -0.396088           0.137646           0.464195
hessian_block                6      12           0.460411           0.084974           0.312351           0.077503          -0.195371           0.124310           0.496852           0.201888           0.792103
hessian_block                7       7           5.474510           0.468353           1.086913           0.468353           6.126896          -1.468814           1.086913          -1.468814           7.886719
hessian_block                7       8          -0.006311          -0.188043           0.038390           0.046679          -0.400888           0.919883           0.362118          -0.654650           1.038273
hessian_block                7       9           0.418611           0.551257          -0.224853          -0.741041          -0.332323          -0.348847           0.268135          -0.468515           1.377391
hessian_block                7      10           0.242616          -0.626173          -0.207692           0.100368          -0.369737          -0.534066          -0.439968          -0.839917           0.184214
hessian_block                7      11          -1.849956           0.489159          -1.695490           0.586437          -2.316021           2.946961          -1.520179           2.193021          -3.438453
hessian_block                7      12           0.054538           0.055607           0.497229          -0.443966           0.476973          -0.717577          -0.649404           0.460084          -1.060354
hessian_block                8       8           4.806221           0.089558          -0.872940           0.089558           5.635519           1.485477          -0.872940           1.485477           7.225461
hessian_block                8       9           0.259571          -0.471868          -0.185704           0.063814           0.128603          -0.310619           0.057669           0.559080           1.025317
hessian_block                8      10           0.071906          -0.230140           0.278772          -0.582902          -0.476743           0.287078          -0.370768          -0.099890           0.598594
hessian_block                8      11           0.154834          -0.176890          -0.230645           0.611237           1.143427           0.690067           0.299396          -0.658266          -0.955121
hessian_block                8      12          -0.810891           1.025997           1.655997           0.855128          -1.569148          -2.155886           1.292826          -2.026703          -3.244972
hessian_block                9       9           5.023132          -0.572587          -0.793199          -0.572587           6.561995          -1.397191          -0.793199          -1.397191           7.744000
hessian_block                9      10          -0.020991           0.218289          -0.163973          -0.237350          -0.085670          -0.145441          -0.411593          -0.103946           0.400635
hessian_block                9      11          -0.216763           0.897502          -0.125655          -0.643985           0.545002           0.809954           0.399475           0.210874          -1.070578
hessian_block                9      12           0.123674          -0.133944           0.654575           0.187055          -0.259938          -0.572295          -0.041047           0.726219          -0.946636
hessian_block               10      10           5.833771           0.582385           1.675724           0.582385           6.781502           2.231540           1.675724           2.231540           8.099789
hessian_block               10      11          -0.102098           0.033294           0.401981           0.291351          -1.375915          -0.167247           0.158683          -0.478680          -0.654175
hessian_block               10      12          -0.554079          -0.120097          -0.179519          -0.407571           0.026275           0.091720          -0.529347           0.056171          -0.524116
hessian_block               11      11           5.427999           0.339719           0.878930           0.339719           7.955832          -1.340615           0.878930          -1.340615           7.558526
hessian_block               11      12           0.096859           0.033548          -0.426604           0.289792          -0.905766           0.488887           0.602097          -0.841992           0.670488
hessian_block               12      12           4.926956          -0.002103          -0.833486          -0.002103           5.643738           1.474840          -0.833486           1.474840           7.464054
hessian_block_lv             1       1          22.458010          -4.413099           4.545550          -4.413099          22.902972           2.138403           4.545550           2.138403           1.858840
hessian_block_lv_atom        1       1           0.290777           0.410463           0.071750          -0.261500          -0.528720          -0.141027           0.060962          -0.119442           0.081290
hessian_block_lv_atom        1       2          -0.367415          -0.698746          -0.168188           0.104247          -0.192018          -0.009143          -0.100225          -0.327385          -0.141878
hessian_block_lv_atom        1       3          -0.481612          -0.814624          -0.214622           0.249423           0.390728           0.097158           0.055246          -0.261131           0.031972
hessian_block_lv_atom        1       4           0.105712           0.171809           0.011291           0.567432           0.663687           0.212613          -0.063420          -0.145571          -0.084434
hessian_block_lv_atom        1       5           0.248644           0.369918           0.358131           0.219034           0.033282           0.281929          -1.605388          -2.550656          -1.396699
hessian_block_lv_atom        1       6          -0.027122          -0.232754          -0.338836          -0.464852          -0.193192          -0.301305          -1.619335          -2.279005          -1.333540
hessian_block_lv_atom        1       7          -0.482092          -0.754044           0.136189          -0.633891          -0.893869          -0.502376           1.240803           2.310132           1.279375
hessian_block_lv_atom        1       8           0.044182           0.178806          -0.238518           0.081018           0.266504           0.288658           1.447911           2.125586           1.321529
hessian_block_lv_atom        1       9           0.092232           0.148598          -0.219028          -0.624591          -0.402494          -0.387581           1.496623           2.567755           1.352124
hessian_block_lv_atom        1      10          -0.226222           0.107821           0.332285           0.395101           0.113743           0.317463           1.779987           2.732840           1.445337
hessian_block_lv_atom        1      11           0.405039           0.767548          -0.118073           0.367066           0.784704           0.400697          -1.358884          -2.298219          -1.347123
hessian_block_lv_atom        1      12           0.397879           0.345208           0.387619           0.001510          -0.042357          -0.257088          -1.334277          -1.754903          -1.207955
symmetry_n_params 39 3 36
symmetry_params a1 b2 c3 x0 x1 x2 x3 x4 x5 x6 x7 x8 x9 x10 x11 x12 x13 x14 x15 x16 x17 x18 x19 x20 x21 x22 x23 x24 x25 x26 x27 x28 x29 x30 x31 x32 x33 x34 x35
symmetry_lv a1 , 0 , 0 
symmetry_lv 0 , b2 , 0 
symmetry_lv 0 , 0 , c3
symmetry_frac x0 , x1 , x2
symmetry_frac x3 , x4 , x5
symmetry_frac x6 , x7 , x8
symmetry_frac x9 , x10 , x11
symmetry_frac x12 , x13 , x14
symmetry_frac x15 , x16 , x17
symmetry_frac x18 , x19 , x20
symmetry_frac x21 , x22 , x23
symmetry_frac x24 , x25 , x26
symmetry_frac x27 , x28 , x29
symmetry_frac x30 , x31 , x32
symmetry_frac x33 , x34 , x35
