# 
# This is the geometry file that corresponds to the current relaxation step.
# If you do not want this file to be written, set the "write_restart_geometry" flag to .false.
#  aims_uuid : F3376AB1-C0EF-44C5-A0B8-2F1C75F2E472                                
# 
lattice_vector      5.84593961      0.00000000      0.00000000
lattice_vector      0.00000000      5.95486887      0.00000000
lattice_vector      0.00000000      0.00000000      7.50122587
atom_frac       0.50236252      0.00240977      0.00218913 Pd
atom_frac       0.00235384      0.00240551      0.50264161 Pd
atom_frac       0.00249613      0.50239157      0.00219558 Pd
atom_frac       0.50247469      0.50241916      0.50262620 Pd
atom_frac       0.61450733      0.12075652      0.40562139 Se
atom_frac       0.89027973      0.88407292      0.90546776 Se
atom_frac       0.11457160      0.38409497      0.59939759 Se
atom_frac       0.39035529      0.62078520      0.09920439 Se
atom_frac       0.39032746      0.88412568      0.59940959 Se
atom_frac       0.11455596      0.12076099      0.09920902 Se
atom_frac       0.89029861      0.62075452      0.40562909 Se
atom_frac       0.61447601      0.38408235      0.90546780 Se
# 
# What follows is the current estimated Hessian matrix constructed by the BFGS algorithm.
# This is NOT the true Hessian matrix of the system.
# If you do not want this information here, switch it off using the "hessian_to_restart_geometry" keyword.
# 
trust_radius             0.0976828712
hessian_block                1       1           6.067719           0.051136          -2.199216           0.051136           6.300358          -1.194173          -2.199216          -1.194173           4.707851
hessian_block                1       2          -0.068311           0.375850          -0.065118           0.182810           0.124746          -0.172522          -0.106488          -0.031606          -0.002086
hessian_block                1       3          -0.104070           0.376883          -0.099311           0.033544          -0.133919           0.080787          -0.181026          -0.026882          -0.076048
hessian_block                1       4           0.603732           0.141783          -0.105467           0.068350          -0.451722          -0.112686           0.006777           0.013187           0.025800
hessian_block                1       5          -0.004726          -0.385032          -0.138937          -0.369302           0.241440           0.264286          -0.257914           0.169622           0.073484
hessian_block                1       6          -1.865280           0.194744           0.821288           0.398102          -0.291333          -0.127558           1.272361          -0.114281          -0.495237
hessian_block                1       7          -0.484635           0.292020           0.169513           0.202416           0.118083           0.052439           0.165588           0.144669           0.154374
hessian_block                1       8          -0.322024          -0.363395           0.407595          -0.364521          -1.809820           0.831256           0.076260           0.744482          -0.397246
hessian_block                1       9          -0.162565           0.041802           0.213015          -0.332126          -0.332882          -0.114081           0.063810          -0.085599           0.156282
hessian_block                1      10          -2.308351           0.654807           0.876707           0.016342          -0.501616          -0.433962           0.756561          -0.483846          -0.516280
hessian_block                1      11           0.119094          -0.468261          -0.078418           0.260828           0.311009           0.083565           0.103422           0.209121           0.068307
hessian_block                1      12           0.095326          -0.912339           0.198348          -0.147580          -1.927318           0.842652           0.299864           0.655305          -0.597336
hessian_block                2       2           5.964852           0.332085           2.369430           0.332085           7.477619           2.075856           2.369430           2.075856           5.191736
hessian_block                2       3           0.752935           0.845241           0.537894          -0.455837          -0.661999          -0.407011           0.052473           0.097749           0.180125
hessian_block                2       4           0.136913           0.526400           0.134730          -0.411071           0.816961           0.463124           0.126573           0.608784           0.268300
hessian_block                2       5          -1.999577           0.099776          -0.948201           0.433524          -0.667862          -0.062673          -0.687560          -0.235321          -0.561070
hessian_block                2       6          -0.328373          -0.021154          -0.013332          -0.213505          -0.865458          -0.450448          -0.155402          -0.437727          -0.330494
hessian_block                2       7          -0.008811          -0.505804          -0.202067          -0.564320          -1.775639          -0.866930          -0.324830          -1.447597          -0.942075
hessian_block                2       8          -0.134648          -0.491391          -0.354106           0.160616          -0.303721          -0.201578          -0.106401          -0.244950          -0.113257
hessian_block                2       9          -2.039228           0.340839          -1.022345           0.595497          -1.000274           0.095944          -1.166036          -0.241845          -0.842916
hessian_block                2      10           0.356196          -0.070985           0.179339           0.207531           1.087931           0.880930           0.170417           0.757431           0.470088
hessian_block                2      11          -0.490423          -0.788190          -0.334133          -0.392019          -3.247419          -1.740648          -0.152533          -0.990267          -0.489147
hessian_block                2      12          -0.575610          -0.449626          -0.240718          -0.068352           0.662142           0.245040          -0.061015           0.230407           0.272662
hessian_block                3       3           6.409488          -0.587688           2.240773          -0.587688           6.383620          -1.303905           2.240773          -1.303905           4.711828
hessian_block                3       4           0.265931          -0.212504          -0.069963          -0.150246           0.017557           0.046375           0.285663          -0.228117           0.128414
hessian_block                3       5          -0.444168           0.139663          -0.180013          -0.285282           0.419178           0.128137           0.071423           0.137329           0.077713
hessian_block                3       6          -0.529025           0.459875          -0.315090           0.056895          -1.724673           0.839354          -0.651589           0.961486          -0.696453
hessian_block                3       7           0.106759           0.028404           0.157477           0.059256          -0.008278           0.023539          -0.388655           0.210355          -0.086263
hessian_block                3       8          -2.094834          -0.226135          -0.819558          -0.577489          -0.315654          -0.386011          -1.035300          -0.196587          -0.464169
hessian_block                3       9          -0.330749           0.351106           0.104250          -0.026242          -0.043927          -0.053725          -0.568725           0.390024          -0.003759
hessian_block                3      10           0.322947           0.457057           0.020785           1.162466          -2.281763           1.104088           0.227708           0.581850          -0.303405
hessian_block                3      11          -0.353031           0.152147          -0.061387          -0.462030           0.298761          -0.252394           0.128046           0.109404           0.060591
hessian_block                3      12          -2.436274          -0.139634          -0.948724          -0.411760          -0.301881          -0.216325          -0.747931          -0.335615          -0.426712
hessian_block                4       4           6.044694           0.183604          -1.992143           0.183604           7.041474           1.572755          -1.992143           1.572755           4.927026
hessian_block                4       5          -0.376219           0.605173           0.165891           0.070428          -2.200495          -1.079530          -0.055643          -1.361325          -0.573940
hessian_block                4       6          -0.117379           0.268411           0.053519          -0.270552          -0.536642          -0.322876           0.248560          -0.481293          -0.135634
hessian_block                4       7          -2.112074          -0.767952           0.825253          -0.127844          -0.215471           0.262582           0.770165          -0.231256          -0.718688
hessian_block                4       8          -0.481622          -0.285193          -0.169155           0.070797          -0.508830          -0.133407          -0.197682          -0.049087          -0.062212
hessian_block                4       9          -0.357212           0.609809           0.139286           0.158964          -2.384993          -1.101989           0.110109          -0.897710          -0.683751
hessian_block                4      10          -0.420621          -0.202346          -0.036727          -0.159475           1.008969           0.482348           0.136388           0.673413           0.280795
hessian_block                4      11          -1.769043          -0.212392           0.741387          -0.808953          -1.443080          -0.286885           0.930633           0.025750          -0.476908
hessian_block                4      12           0.148811           0.293850          -0.146325           0.427354           0.503298           0.213147           0.090316           0.351943           0.122663
hessian_block                5       5           5.332947          -0.287256          -1.086260          -0.287256           6.379777          -1.022938          -1.086260          -1.022938           7.490647
hessian_block                5       6           0.018794          -0.348706          -0.084718           0.007825          -0.210626           0.500153          -0.062929          -0.467559           0.465968
hessian_block                5       7          -0.350031           1.198581          -0.122966          -0.845263          -0.083733           0.324729           0.367449           0.651586          -0.759035
hessian_block                5       8          -0.147781           0.137236           0.491349           0.481166           0.118955          -0.443004           0.412387           0.596726          -0.724006
hessian_block                5       9          -1.429335          -0.466042           1.708874          -0.488714          -1.997297           2.259755           1.764086           2.355447          -3.161150
hessian_block                5      10           0.074575           0.535704           0.178227           0.225331           0.092874          -0.538892           0.240457          -0.194105          -0.797769
hessian_block                5      11           0.390391          -0.953543           0.245123           0.914149           0.242864           0.053579          -0.482555          -0.214546           1.017955
hessian_block                5      12           0.501039           0.334660          -0.399937          -0.466822          -0.688052           0.156315          -0.051374          -0.954826           0.553067
hessian_block                6       6           5.533651           0.410836           1.925262           0.410836           5.806072           1.740400           1.925262           1.740400           8.525975
hessian_block                6       7           0.106995          -0.214219          -0.168025           0.551520           0.303512           0.911423          -0.201748           0.031087          -0.128901
hessian_block                6       8           0.088621           0.481240           0.288147          -0.037401           0.073156           0.221014          -0.179796          -0.163270          -0.704279
hessian_block                6       9           0.233360           0.283242           0.163476           0.280381           0.833607           0.345144          -0.200658          -0.139232          -0.481146
hessian_block                6      10          -1.798732          -1.305100          -2.939261          -1.177603          -2.168167          -3.056913          -2.219820          -2.407032          -4.185060
hessian_block                6      11           0.083769           0.402432          -0.025178          -0.747210           0.492256           0.153978          -0.182189           0.267133           0.481790
hessian_block                6      12           0.139509          -0.037194           0.104575           0.166309          -0.064683           0.224330           0.597279           0.232289           0.785336
hessian_block                7       7           5.594490           0.302172           1.204407           0.302172           6.239749          -1.411914           1.204407          -1.411914           7.637364
hessian_block                7       8           0.045999          -0.194610           0.015676           0.114374          -0.411167           0.820094           0.393520          -0.617023           0.940719
hessian_block                7       9           0.367109           0.586620          -0.180248          -0.830904          -0.209515          -0.408374           0.409009          -0.416224           1.095393
hessian_block                7      10           0.247221          -0.769461           0.036320           0.316638          -0.573024          -0.512958          -0.328857          -0.898792           0.164590
hessian_block                7      11          -1.929524           0.644441          -1.843002           0.606465          -2.298440           2.873374          -1.691060           2.200951          -3.243485
hessian_block                7      12          -0.017587           0.155071           0.378876          -0.539775           0.560948          -0.719066          -0.646206           0.435220          -1.012128
hessian_block                8       8           5.372166          -0.095933          -0.991820          -0.095933           5.652099           1.485793          -0.991820           1.485793           7.200798
hessian_block                8       9           0.511126          -0.540795          -0.215806           0.242356           0.013915          -0.357201          -0.076883           0.486953           0.931681
hessian_block                8      10          -0.065534          -0.051603           0.391796          -0.754780          -0.341373           0.293923          -0.502630          -0.031725           0.593362
hessian_block                8      11           0.210309          -0.290866          -0.292029           0.601076           1.101331           0.675612           0.234240          -0.570584          -0.856752
hessian_block                8      12          -1.415867           1.131655           1.744874           0.949528          -1.621869          -2.168416           1.477145          -2.078801          -3.242775
hessian_block                9       9           5.141121          -0.436589          -0.797793          -0.436589           6.710518          -1.511908          -0.797793          -1.511908           7.446855
hessian_block                9      10          -0.169830           0.136714           0.149267          -0.405420          -0.318866          -0.070030          -0.497121          -0.215067           0.403648
hessian_block                9      11          -0.114799           1.000527          -0.318832          -0.624995           0.526609           0.731761           0.347474           0.280014          -0.838285
hessian_block                9      12          -0.083089          -0.299862           0.632646           0.260424          -0.149871          -0.601639           0.036938           0.781489          -0.920990
hessian_block               10      10           5.732970           0.755067           1.798510           0.755067           7.137176           2.358721           1.798510           2.358721           8.158465
hessian_block               10      11          -0.089654          -0.181275           0.284595           0.367616          -1.349299          -0.150911          -0.062313          -0.552700          -0.660553
hessian_block               10      12          -0.315273          -0.004825          -0.066208          -0.507469          -0.145820           0.010061          -0.592649           0.045444          -0.506017
hessian_block               11      11           5.485487           0.302649           1.047242           0.302649           7.914083          -1.282238           1.047242          -1.282238           7.448733
hessian_block               11      12           0.023333          -0.017572          -0.220408           0.392330          -0.901652           0.517963           0.634634          -0.858790           0.589617
hessian_block               12      12           5.501592          -0.054186          -1.037001          -0.054186           5.721779           1.495938          -1.037001           1.495938           7.484477
hessian_block_lv             1       1          21.788221          -3.815454           4.127467          -3.815454          22.422993           2.387758           4.127467           2.387758           1.751466
hessian_block_lv_atom        1       1           0.357186           0.289766           0.062335          -0.582707          -0.196961          -0.178466          -0.267734           0.134207           0.015625
hessian_block_lv_atom        1       2          -0.692074          -0.370183          -0.168826          -0.168736           0.108297          -0.001706          -0.089137          -0.287359          -0.060434
hessian_block_lv_atom        1       3          -0.917523          -0.377908          -0.222774           0.310287           0.316939           0.069236          -0.347939           0.072850          -0.003669
hessian_block_lv_atom        1       4           0.020737           0.160626           0.018130           0.692854           0.560615           0.222994           0.032029          -0.188934          -0.037601
hessian_block_lv_atom        1       5           0.313874           0.212918           0.395118          -0.183990           0.363576           0.283635          -2.255317          -2.061877          -1.416742
hessian_block_lv_atom        1       6           0.747970          -0.814687          -0.286050          -0.014970          -0.596961          -0.285294          -1.508010          -2.425839          -1.409900
hessian_block_lv_atom        1       7          -0.857747          -0.378379           0.075529          -0.630620          -0.959416          -0.503410           1.964748           1.747659           1.312888
hessian_block_lv_atom        1       8           0.555047          -0.032785          -0.296085           0.123536           0.170131           0.297423           1.727104           1.891609           1.364914
hessian_block_lv_atom        1       9           0.282945           0.073945          -0.243088          -0.194791          -0.737695          -0.389610           2.213550           1.987708           1.407389
hessian_block_lv_atom        1      10          -0.969217           0.714562           0.298818           0.036578           0.473141           0.348460           1.923519           2.678999           1.468147
hessian_block_lv_atom        1      11           0.936328           0.306350          -0.077670           0.471414           0.663513           0.383994          -2.037078          -1.840956          -1.350988
hessian_block_lv_atom        1      12           0.222475           0.215777           0.444563           0.141141          -0.165183          -0.247260          -1.355732          -1.708066          -1.289631
