#=======================================================
# FHI-aims file: geometry.in
# Created using the Atomic Simulation Environment (ASE)
# Mon Jul 13 16:42:22 2020
#=======================================================
lattice_vector 3.1903157300000000 0.0000000000000000 0.0000000000000000 
lattice_vector -1.5951578649999993 2.7628944682730965 0.0000000000000000 
lattice_vector 0.0000000000000000 0.0000000000000000 14.8790043000000001 
atom_frac 0.3333330000000000 0.6666670000000000 0.2500000000000000 Mo
atom_frac 0.6666670000000001 0.3333330000000000 0.7500000000000000 Mo
atom_frac 0.3333330000000000 0.6666670000000000 0.8551740000000000 S
atom_frac 0.6666670000000001 0.3333330000000000 0.1448260000000000 S
atom_frac 0.6666660000000000 0.3333330000000000 0.3551739999999999 S
atom_frac 0.3333340000000000 0.6666670000000000 0.6448260000000000 S
symmetry_n_params 20 2 18
symmetry_params a1 c3 x0 x1 x2 x3 x4 x5 x6 x7 x8 x9 x10 x11 x12 x13 x14 x15 x16 x17
symmetry_lv a1 , 0 , 0 
symmetry_lv -a1/2 , sqrt(3.0)*a1/2 , 0 
symmetry_lv 0 , 0 , c3
symmetry_frac x0 , x1 , x2
symmetry_frac x3 , x4 , x5
symmetry_frac x6 , x7 , x8
symmetry_frac x9 , x10 , x11
symmetry_frac x12 , x13 , x14
symmetry_frac x15 , x16 , x17
