# 
# This is the geometry file that corresponds to the current relaxation step.
# If you do not want this file to be written, set the "write_restart_geometry" flag to .false.
#  aims_uuid : DCF76DED-A0DD-43F4-A815-41807BE94C30                                
# 
lattice_vector      3.28862646      0.00000000      0.00000000
lattice_vector     -1.64431323      2.84803406      0.00000000
lattice_vector      0.00000000      0.00000000    102.57465495
atom_frac       0.00011184      0.00016200      0.50009239 Se
atom_frac       0.33345110      0.66691060      0.48362928 W
atom_frac       0.00000179      0.00005683      0.46716740 Se
# 
# What follows is the current estimated Hessian matrix constructed by the BFGS algorithm.
# This is NOT the true Hessian matrix of the system.
# If you do not want this information here, switch it off using the "hessian_to_restart_geometry" keyword.
# 
trust_radius             0.0849489299
hessian_block                1       1           1.046796          -0.609522           4.734766          -0.609522           1.192461         -10.804631           4.734766         -10.804631        3383.210962
hessian_block                1       2          -0.988808           0.536006           0.685458           0.673249          -1.302373          24.824651           0.249382           1.156635       -2175.066107
hessian_block                1       3           0.162517          -0.036736          -5.420224          -0.173979           0.330418         -14.020020          -4.984148           9.647996        -988.768951
hessian_block                2       2           2.135502          -1.231758          -1.748196          -1.231758           3.002880           1.233299          -1.748196           1.233299        4134.461383
hessian_block                2       3          -0.926189           0.448257           1.498814           0.585500          -1.480001          -2.389935           1.062738         -26.057950       -1740.019372
hessian_block                3       3           0.984177          -0.521774           3.921410          -0.521774           1.370089          16.409954           3.921410          16.409954        2948.164227
hessian_block_lv             1       1          38.223552           0.681927           0.000000           0.681927           0.027817           0.000000           0.000000           0.000000           0.000000
hessian_block_lv_atom        1       1           0.316079           0.018282           0.000000          -0.605875          -0.039978           0.000000         184.444657           8.113872           0.000000
hessian_block_lv_atom        1       2           0.673224           0.000195           0.000000           2.124908           0.098752           0.000000         -16.081606          -1.179102           0.000000
hessian_block_lv_atom        1       3          -0.989303          -0.018477           0.000000          -1.519032          -0.058774           0.000000        -168.363051          -6.934770           0.000000
