# 
# This is the geometry file that corresponds to the current relaxation step.
# If you do not want this file to be written, set the "write_restart_geometry" flag to .false.
#  aims_uuid : 42349D29-D97C-48F5-A039-EAC1CAE5AD4F                                
# 
lattice_vector      3.28798381      0.00000000      0.00000000
lattice_vector     -1.64399190      2.84747751      0.00000000
lattice_vector      0.00000000      0.00000000     13.22803981
atom_frac       0.32987735      0.66520599      0.25317309 W
atom_frac       0.67641792      0.34109341      0.75312350 W
atom_frac       0.34300004      0.67431429      0.88070289 Se
atom_frac       0.66329631      0.33198478      0.38074728 Se
atom_frac       0.66330153      0.33198439      0.12560363 Se
atom_frac       0.34300552      0.67431582      0.62554828 Se
# 
# What follows is the current estimated Hessian matrix constructed by the BFGS algorithm.
# This is NOT the true Hessian matrix of the system.
# If you do not want this information here, switch it off using the "hessian_to_restart_geometry" keyword.
# 
trust_radius             0.0027903092
hessian_block                1       1         493.986333         165.061431           8.456980         165.061431          70.312836           2.946072           8.456980           2.946072         303.601185
hessian_block                1       2        -481.233749        -171.740279         -10.660382        -171.249379         -58.757368          -0.939396          13.830938           0.479650          89.132242
hessian_block                1       3           0.233251           1.053284           3.299214           5.489476           1.105713          -0.256830          18.531087           6.328223         -86.205542
hessian_block                1       4          -6.168005           2.084185          -2.241266          -2.572310          -6.442776          -0.679722          35.456221           9.597405        -108.856650
hessian_block                1       5          -5.812957           2.231241          -2.264527          -2.989919          -6.620278          -0.692617         -50.292383         -12.108564        -172.976892
hessian_block                1       6          -0.145641           0.880521           3.409982           5.831085           1.261105          -0.377508         -25.982843          -7.242786         -10.246354
hessian_block                2       2         490.246832         163.633853         -13.323276         163.633853          69.324305           0.776317         -13.323276           0.776317         260.911967
hessian_block                2       3          -5.167198           2.445247           3.744235          -2.354476          -6.199627          -1.517534         -20.636316          -6.511143        -155.471618
hessian_block                2       4           1.060294           1.138230          -4.098731           6.192638           1.353945           0.935609         -33.905250          -8.816661         -17.231101
hessian_block                2       5           1.061176           1.220276          -3.834592           6.224941           1.271545           0.709962          50.639880           9.217795         -63.804755
hessian_block                2       6          -5.108124           2.382157           3.681425          -2.386294          -6.133568          -1.384004          27.885344           6.273089         -99.088745
hessian_block                3       3           3.271655          -1.896574          -1.834799          -1.896574           3.436010          -0.299782          -1.834799          -0.299782         183.585049
hessian_block                3       4           0.329794          -0.236616           3.009995          -0.424011           0.235530           0.298076           0.518430          -1.089646           2.969935
hessian_block                3       5           0.269443          -0.330153           2.502705          -0.358456           0.339638           0.792327          -4.467886           2.365731          76.340354
hessian_block                3       6           1.922287          -1.101273          -1.572673          -1.249106           1.941969          -0.607701          -1.259194           0.798061          -6.770187
hessian_block                4       4           3.365536          -1.955686          -1.335533          -1.955686           3.441700           0.726392          -1.335533           0.726392         122.901701
hessian_block                4       5           1.839411          -1.267987          -1.118730          -1.123788           2.054802           0.524292           4.369126          -1.010312           8.371146
hessian_block                4       6           0.432202          -0.402260           0.384863          -0.335942           0.216031          -0.941781           0.296409          -0.270043           6.292958
hessian_block                5       5           3.181280          -1.902505           4.163209          -1.902505           3.547595          -0.776509           4.163209          -0.776509         163.494549
hessian_block                5       6           0.320878          -0.279890          -4.411946          -0.380489           0.265932           2.311860           0.551935          -0.557455           3.023588
hessian_block                6       6           3.437631          -1.908870          -1.491651          -1.908870           3.307764           0.999134          -1.491651           0.999134         121.236730
hessian_block_lv             1       1          45.788329           2.095776           0.000000           2.095776           1.319545           0.000000           0.000000           0.000000           0.000000
hessian_block_lv_atom        1       1           4.558465           6.801916           0.000000           2.964675           1.535246           0.000000          -3.676012           3.610246           0.000000
hessian_block_lv_atom        1       2          -5.325128          -6.810924           0.000000          -2.429293          -1.630433           0.000000           4.021415           3.136497           0.000000
hessian_block_lv_atom        1       3          -0.729030           0.318598           0.000000           0.436173          -0.142120           0.000000           5.973332          -0.326845           0.000000
hessian_block_lv_atom        1       4           1.104960          -0.317331           0.000000          -0.708303           0.193211           0.000000          13.282307           6.363474           0.000000
hessian_block_lv_atom        1       5           1.025283          -0.308726           0.000000          -0.616344           0.183685           0.000000          -4.221011          -8.038673           0.000000
hessian_block_lv_atom        1       6          -0.634549           0.316468           0.000000           0.353091          -0.139590           0.000000         -15.380031          -4.744699           0.000000
