#=======================================================
# FHI-aims file: geometry.in.supercell
# Created using the Atomic Simulation Environment (ASE)
# Thu Dec  3 13:23:01 2020

# Additional information:
#  Number of atoms:     16
#=======================================================
lattice_vector 0.0000399705400000 5.4335701187119998 5.4335701188399996 
lattice_vector 5.4335699395720001 0.0000399710300000 5.4335701183499996 
lattice_vector 5.4335699396960004 5.4335701183460001 0.0000399709060000 
atom 0.0000008901415683 0.0000008901606150 0.0000008900193432 Si
atom 0.0000208754115683 2.7167859495166149 2.7167859494393434 Si
atom 2.7167858599275685 0.0000208756756150 2.7167859491943434 Si
atom 2.7168058451975687 2.7168059350316152 5.4335710086143436 Si
atom 2.7167858599895687 2.7167859493336151 0.0000208754723432 Si
atom 2.7168058452595685 5.4335710086896150 2.7168059348923435 Si
atom 5.4335708297755687 2.7168059348486153 2.7168059346473434 Si
atom 5.4335908150455694 5.4335909942046152 5.4335909940673437 Si
atom 1.3583965910871501 1.3583966358531001 1.3583966359926600 Si
atom 1.3584165763571501 4.0751816952090998 4.0751816954126596 Si
atom 4.0751815608731503 1.3584166213681002 4.0751816951676600 Si
atom 4.0752015461431501 4.0752016807241001 6.7919667545876594 Si
atom 4.0751815609351505 4.0751816950261004 1.3584166214456599 Si
atom 4.0752015462051503 6.7919667543821003 4.0752016808656597 Si
atom 6.7919665307211501 4.0752016805410998 4.0752016806206601 Si
atom 6.7919865159911499 6.7919867398970997 6.7919867400406595 Si
