# 
# This is the geometry file that corresponds to the current relaxation step.
# If you do not want this file to be written, set the "write_restart_geometry" flag to .false.
#  aims_uuid : 50EEF9DA-4B31-4C12-AE76-AFED9E727BB0                                
# 
lattice_vector      3.28798390      0.00000000      0.00000000
lattice_vector     -1.64399195      2.84747758      0.00000000
lattice_vector      0.00000000      0.00000000     13.22903051
atom_frac       0.33063672      0.66601723      0.25403354 W
atom_frac       0.67741974      0.34203823      0.75402179 W
atom_frac       0.34398827      0.67527968      0.88159504 Se
atom_frac       0.66406549      0.33277607      0.38160659 Se
atom_frac       0.66406562      0.33277698      0.12646051 Se
atom_frac       0.34399000      0.67527765      0.62644836 Se
# 
# What follows is the current estimated Hessian matrix constructed by the BFGS algorithm.
# This is NOT the true Hessian matrix of the system.
# If you do not want this information here, switch it off using the "hessian_to_restart_geometry" keyword.
# 
trust_radius             0.0010112501
hessian_block                1       1         477.599273         160.335078          -4.152492         160.335078          69.883943           0.712881          -4.152492           0.712881         242.139061
hessian_block                1       2        -471.532681        -167.840721           3.773564        -167.108016         -60.101540           0.637406          -1.047269           1.381961         -34.308016
hessian_block                1       3           1.435320           0.256874          -0.055561           5.447785           2.162500          -0.127568          23.070277           7.503082          28.642255
hessian_block                1       4          -4.205891           3.254537          -0.206548          -2.076077          -6.578382           0.037219          29.857177           4.917759        -127.295163
hessian_block                1       5          -3.437060           3.403689           1.496633          -2.900888          -6.751655          -1.840974         -35.308693          -6.593436        -106.643373
hessian_block                1       6           1.000272           0.160927          -0.855595           5.872502           2.244366           0.581035         -12.419000          -7.922248          11.913227
hessian_block                2       2         486.858647         161.786576           0.413987         161.786576          71.022583          -0.260542           0.413987          -0.260542         236.689061
hessian_block                2       3          -6.601782           2.842323          -1.530271          -2.486453          -6.865194          -0.982060         -25.460762          -4.616023        -105.259637
hessian_block                2       4          -0.689919          -0.143564           1.036994           5.342894           1.528465           1.328822         -29.964125          -6.561959          -2.140181
hessian_block                2       5          -0.722848          -1.139614           3.956816           5.412582           2.596690          -1.754595          34.561870           8.229067          30.982028
hessian_block                2       6          -6.452185           3.332679          -2.830257          -2.644495          -7.321772           0.286414          16.675467           2.572052        -111.515266
hessian_block                3       3           3.734141          -2.222215           2.214107          -2.222215           3.587637          -1.515115           2.214107          -1.515115         129.268733
hessian_block                3       4          -0.029200           0.202747          -1.315540           0.113006          -0.123531           0.434813           1.653906          -0.173617         -10.734285
hessian_block                3       5           0.045971           0.117344          -0.245175           0.035521          -0.043577          -0.700999          -1.927588           0.591568         -15.254571
hessian_block                3       6           2.274783          -1.488825           1.737093          -1.455124           2.141398          -1.105757          -0.354593           2.206792         -12.214505
hessian_block                4       4           3.911621          -2.646129          -0.317633          -2.646129           4.141156          -0.485695          -0.317633          -0.485695         168.319493
hessian_block                4       5           1.439383          -0.756764          -4.758155          -0.841699           1.503013           4.193846           1.709488          -0.794760         -18.356033
hessian_block                4       6           0.433239          -0.406546           3.528830          -0.255508           0.388511          -1.890334          -0.906762          -0.520400           4.654158
hessian_block                5       5           3.990564          -2.657765           3.575067          -2.657765           4.070963          -2.669588           3.575067          -2.669588         135.448177
hessian_block                5       6          -0.456778           0.522633          -2.610143           0.603494          -0.516201           1.237148          -4.025185           2.772309         -11.728238
hessian_block                6       6           4.059902          -2.550485           1.030072          -2.550485           3.922931           0.891494           1.030072           0.891494         133.338615
hessian_block_lv             1       1          53.097171           3.983167           0.000000           3.983167           1.903439           0.000000           0.000000           0.000000           0.000000
hessian_block_lv_atom        1       1           0.027914           4.277681           0.000000           0.981401           0.944066           0.000000          -7.552769          -0.954367           0.000000
hessian_block_lv_atom        1       2          -1.016567          -4.863729           0.000000          -0.086110          -0.510670           0.000000           0.537955          -3.064975           0.000000
hessian_block_lv_atom        1       3          -0.060091           0.413956           0.000000           0.095670          -0.243094           0.000000          12.796035           6.499374           0.000000
hessian_block_lv_atom        1       4           0.593286          -0.014179           0.000000          -0.595230          -0.093336           0.000000          25.155858          10.643585           0.000000
hessian_block_lv_atom        1       5           0.476323          -0.420573           0.000000          -0.471162           0.333615           0.000000         -13.339572          -7.951463           0.000000
hessian_block_lv_atom        1       6          -0.020864           0.606845           0.000000           0.075430          -0.430579           0.000000         -17.597508          -5.172154           0.000000
