# 
# This is the geometry file that corresponds to the current relaxation step.
# If you do not want this file to be written, set the "write_restart_geometry" flag to .false.
#  aims_uuid : 8B0BDCBB-8CF0-432A-AD58-831A60579070                                
# 
lattice_vector      3.28925651      0.00000000      0.00000000
lattice_vector     -1.64462826      2.84857970      0.00000000
lattice_vector      0.00000000      0.00000000     13.20181975
atom_frac       0.32982125      0.66503394      0.25298291 W
atom_frac       0.67614139      0.34091234      0.75299848 W
atom_frac       0.34272625      0.67417754      0.88080472 Se
atom_frac       0.66329186      0.33179360      0.38078956 Se
atom_frac       0.66331266      0.33176768      0.12517792 Se
atom_frac       0.34265368      0.67426199      0.62519351 Se
# 
# What follows is the current estimated Hessian matrix constructed by the BFGS algorithm.
# This is NOT the true Hessian matrix of the system.
# If you do not want this information here, switch it off using the "hessian_to_restart_geometry" keyword.
# 
trust_radius             0.0166090139
hessian_block                1       1         456.923477         172.125154           9.983560         172.125154          81.300685          -0.067610           9.983560          -0.067610         223.292819
hessian_block                1       2        -445.127714        -178.684638          -3.762833        -179.178495         -72.642747          -8.047318          27.793356           0.543441         -32.324973
hessian_block                1       3          -6.373712          -2.797054          -0.665747          13.441416           5.652415           3.090049          77.837147          38.393566          21.690084
hessian_block                1       4           0.842580           5.824826          -2.480079         -10.012685          -9.469721           1.030384          62.882324          25.416288         -94.055025
hessian_block                1       5           1.087089           6.080985          -2.230463         -10.305420          -9.769166           0.739756         -84.601889         -30.512942        -112.655354
hessian_block                1       6          -6.492487          -2.978890          -0.844438          13.500414           5.787765           3.254740         -93.894498         -33.772742           8.500440
hessian_block                2       2         455.700120         169.909126         -16.755186         169.909126          86.248358         -14.521555         -16.755186         -14.521555         228.509729
hessian_block                2       3           1.228983           7.068506          -2.606396          -9.133150         -12.011431           3.333093         -88.487764         -30.415007        -105.764024
hessian_block                2       4          -5.970351          -2.774028          -2.708757          13.113154           5.735275           3.403663         -62.829816         -29.593870          33.877058
hessian_block                2       5          -6.332734          -2.575490          -2.847609          13.546607           5.571231           3.558329          82.433342          39.059737           3.024427
hessian_block                2       6           1.360928           7.120767          -2.875407          -9.180714         -12.041454           3.683029          89.402257          43.518013        -112.874227
hessian_block                3       3           3.891720          -2.975384           1.330090          -2.975384           4.806849           1.225799           1.330090           1.225799         158.441683
hessian_block                3       4          -0.219246           0.329240           3.997840           0.307112          -0.566740          -5.151393          -1.941718           4.185223          20.152640
hessian_block                3       5          -0.134759           0.152535           4.084773           0.222512          -0.395742          -5.298525           1.203563          -5.773337         -36.787020
hessian_block                3       6           2.466247          -2.244272           1.237914          -2.255308           3.373882           1.245560           2.680209          -6.060826         -43.285374
hessian_block                4       4           3.939505          -2.434130           1.753611          -2.434130           3.567864          -1.920163           1.753611          -1.920163         140.295981
hessian_block                4       5           2.468364          -1.741551           2.075371          -1.678606           2.182437          -2.236527           0.070328           1.255525         -30.521398
hessian_block                4       6          -0.201619           0.338484          -1.939772           0.303082          -0.589882           4.149049          -0.632943           1.381984         -55.301266
hessian_block                5       5           3.957758          -2.538286          -0.534797          -2.538286           3.755266           1.909071          -0.534797           1.909071         151.871749
hessian_block                5       6          -0.186485           0.323577           1.429454           0.192191          -0.484794          -5.938054          -0.547275           1.327895          39.515585
hessian_block                6       6           3.912649          -2.989281           2.992250          -2.989281           4.813716          -6.394324           2.992250          -6.394324         177.892831
hessian_block_lv             1       1          57.919946           6.974835           0.000000           6.974835           2.132908           0.000000           0.000000           0.000000           0.000000
hessian_block_lv_atom        1       1          44.854542          12.036247           0.000000          12.865091           4.453455           0.000000           6.200375           1.169277           0.000000
hessian_block_lv_atom        1       2         -37.246910         -11.921393           0.000000         -23.912801          -5.437299           0.000000           6.160269           1.292295           0.000000
hessian_block_lv_atom        1       3          -3.004963          -0.285011           0.000000           5.050992           0.813136           0.000000          33.534871          10.892748           0.000000
hessian_block_lv_atom        1       4          -0.555819           0.243865           0.000000           0.220670          -0.332601           0.000000          40.028414          10.812096           0.000000
hessian_block_lv_atom        1       5          -0.855521           0.180194           0.000000           0.511570          -0.274420           0.000000         -40.613211         -11.095275           0.000000
hessian_block_lv_atom        1       6          -3.191329          -0.253903           0.000000           5.264477           0.777728           0.000000         -45.310718         -13.071142           0.000000
