# 
# This is the geometry file that corresponds to the current relaxation step.
# If you do not want this file to be written, set the "write_restart_geometry" flag to .false.
#  aims_uuid : 1E52F62E-7B2B-4A7C-A0A4-173D64163737                                
# 
lattice_vector      3.72232993      0.00000000      0.00000000
lattice_vector     -1.86116497      3.22363228      0.00000000
lattice_vector      0.00000000      0.00000000    100.51270103
atom_frac       0.00049290      0.66729015      0.50104851 Se
atom_frac       0.33366887      0.33358608      0.47475917 Se
atom_frac       0.66713358      0.00041911      0.48790123 Pt
# 
# What follows is the current estimated Hessian matrix constructed by the BFGS algorithm.
# This is NOT the true Hessian matrix of the system.
# If you do not want this information here, switch it off using the "hessian_to_restart_geometry" keyword.
# 
trust_radius             0.0388577078
hessian_block                1       1           1.459358          -1.095597          -7.318455          -1.095597           2.122911          17.015059          -7.318455          17.015059        1868.919081
hessian_block                1       2           0.066831          -0.153341          -3.627807          -0.177841           0.117230         -10.065504           9.543441         -18.799577        -537.831671
hessian_block                1       3          -1.282182           1.126934          10.946262           1.151434          -1.996134          -6.949555          -2.224986           1.784518       -1151.934473
hessian_block                2       2           1.138221          -0.485100           3.618651          -0.485100           1.334291          -0.129264           3.618651          -0.129264        1287.149777
hessian_block                2       3          -0.961045           0.540937         -13.162092           0.516437          -1.207514          18.928841           0.009156          10.194768        -570.165169
hessian_block                3       3           2.487235          -1.789875           2.215830          -1.789875           3.447655         -11.979286           2.215830         -11.979286        1901.252579
hessian_block_lv             1       1          23.818781           0.350086           0.000000           0.350086           0.010718           0.000000           0.000000           0.000000           0.000000
hessian_block_lv_atom        1       1          -1.089190          -0.011307           0.000000           2.252212           0.036588           0.000000         133.915599           3.932290           0.000000
hessian_block_lv_atom        1       2          -0.379243          -0.010823           0.000000          -0.470616          -0.032639           0.000000        -107.699203          -2.396724           0.000000
hessian_block_lv_atom        1       3           1.468433           0.022130           0.000000          -1.781596          -0.003949           0.000000         -26.216397          -1.535567           0.000000
