#=======================================================
# FHI-aims file: ./geometry.in
# Created using the Atomic Simulation Environment (ASE)
# Wed Oct 23 16:37:33 2019
#=======================================================
lattice_vector 3.2900000000000000 0.0000000000000000 0.0000000000000000 
lattice_vector -1.6450000000000000 2.8492235799999999 0.0000000000000000 
lattice_vector 0.0000000000000000 0.0000000000000000 100.0000000000000000 
atom -0.0000000000000000 1.8994823900000000 3.2275000000000000 Mo
atom 1.6450000000000000 0.9497411900000000 4.8864349999999996 Se
atom 1.6450000000000000 0.9497411900000000 1.5685650000000000 Se
