#=======================================================
# FHI-aims file: geometry.in
# Created using the Atomic Simulation Environment (ASE)
# Thu May 20 19:47:28 2021
#=======================================================
lattice_vector 3.1600000000000001 0.0000000000000000 0.0000000000000000 
lattice_vector -1.5800000000000001 2.7366402800000000 0.0000000000000000 
lattice_vector 0.0000000000000000 0.0000000000000000 100.0000000000000000 
atom 0.0000000000000002 1.8244268500000000 50.0000000000000000 Mo
atom 1.5800000000000003 0.9122134300000000 51.5805499999999952 S
atom 1.5800000000000003 0.9122134300000000 48.4194499999999977 S

homogeneous_field 0 0 0.1
