# 
# This is the geometry file that corresponds to the current relaxation step.
# If you do not want this file to be written, set the "write_restart_geometry" flag to .false.
#  aims_uuid : 702DFAB5-9B01-4CD6-A29D-593C15C7B0A2                                
# 
lattice_vector      5.84598499      0.00000000      0.00000000
lattice_vector      0.00000000      5.95375536      0.00000000
lattice_vector      0.00000000      0.00000000      7.50822164
atom_frac       0.50213969      0.00220195      0.00212944 Pd
atom_frac       0.00213241      0.00218248      0.50222034 Pd
atom_frac       0.00225352      0.50215563      0.00209153 Pd
atom_frac       0.50221045      0.50219857      0.50224350 Pd
atom_frac       0.61430186      0.12055790      0.40544314 Se
atom_frac       0.88993884      0.88377062      0.90544121 Se
atom_frac       0.11438429      0.38382609      0.59892232 Se
atom_frac       0.39009966      0.62055311      0.09890433 Se
atom_frac       0.39002647      0.88383767      0.59893454 Se
atom_frac       0.11430477      0.12047754      0.09890765 Se
atom_frac       0.89001318      0.62055119      0.40544853 Se
atom_frac       0.61431477      0.38380717      0.90543335 Se
# 
# What follows is the current estimated Hessian matrix constructed by the BFGS algorithm.
# This is NOT the true Hessian matrix of the system.
# If you do not want this information here, switch it off using the "hessian_to_restart_geometry" keyword.
# 
trust_radius             0.0488393232
hessian_block                1       1           5.995993           0.050469          -2.125999           0.050469           6.510729          -1.270679          -2.125999          -1.270679           4.680560
hessian_block                1       2          -0.075085           0.554119          -0.128556           0.242801           0.198530          -0.324101          -0.164025           0.138442          -0.061782
hessian_block                1       3          -0.124186           0.632341          -0.211312          -0.025310          -0.062672           0.117406          -0.166732           0.047590          -0.127318
hessian_block                1       4           0.517331           0.162830          -0.032768           0.091507          -0.505459          -0.169432           0.006040           0.045254          -0.015967
hessian_block                1       5          -0.004593          -0.504283          -0.057906          -0.377793           0.372954           0.163643          -0.175493           0.093594           0.233635
hessian_block                1       6          -1.774375           0.008029           0.798301           0.507277          -0.561266          -0.026185           1.550321          -0.523571          -0.347626
hessian_block                1       7          -0.336752           0.236581           0.049478           0.144568           0.122571           0.151961           0.053819           0.207782           0.100567
hessian_block                1       8          -0.196630          -0.348835           0.262532          -0.317198          -1.956380           0.846463          -0.011238           0.883311          -0.521633
hessian_block                1       9          -0.154790           0.119665           0.139847          -0.382655          -0.373460           0.043219          -0.085585           0.014648           0.096636
hessian_block                1      10          -2.350445           0.764784           0.871238          -0.085664          -0.259008          -0.547121           0.533550          -0.190506          -0.686632
hessian_block                1      11           0.057015          -0.568575           0.022368           0.291585           0.183871           0.135542           0.143625           0.136919           0.247690
hessian_block                1      12           0.012428          -1.107124           0.412778          -0.139594          -2.023387           0.879285           0.441719           0.417217          -0.496264
hessian_block                2       2           6.144107           0.388860           2.540439           0.388860           7.363960           2.213199           2.540439           2.213199           5.404651
hessian_block                2       3           1.001741           0.941316           0.804265          -0.410257          -0.546204          -0.394852           0.138506           0.059084           0.266206
hessian_block                2       4           0.184340           0.635827           0.154926          -0.493821           0.708541           0.426197           0.152546           0.633510           0.337363
hessian_block                2       5          -2.139430           0.055573          -1.127984           0.576322          -0.608620           0.118864          -0.779095          -0.349026          -0.803569
hessian_block                2       6          -0.523686          -0.100194          -0.136525          -0.467473          -1.064841          -0.765820          -0.676797          -0.932049          -1.054210
hessian_block                2       7          -0.066895          -0.749461          -0.233245          -0.514360          -1.652498          -0.852886          -0.212653          -1.237655          -0.732858
hessian_block                2       8          -0.199810          -0.709191          -0.419534           0.027556          -0.387297          -0.335762           0.081353          -0.042640           0.212870
hessian_block                2       9          -1.970284           0.356733          -0.929524           0.561418          -0.901090          -0.022070          -1.016952           0.023885          -0.579554
hessian_block                2      10           0.518021          -0.037152           0.333150           0.463115           1.255956           1.222058           0.524298           1.108901           1.021739
hessian_block                2      11          -0.587938          -0.683644          -0.406917          -0.535321          -3.310137          -1.922038          -0.232152          -1.053405          -0.713872
hessian_block                2      12          -0.719172          -0.341468          -0.415025          -0.150157           0.590727           0.174667          -0.390936          -0.099704          -0.195118
hessian_block                3       3           6.760495          -0.523508           2.337286          -0.523508           6.353813          -1.273629           2.337286          -1.273629           4.735515
hessian_block                3       4           0.314263          -0.298705          -0.012893          -0.254594           0.063282          -0.056550           0.351728          -0.201675           0.135481
hessian_block                3       5          -0.651215           0.107754          -0.240708          -0.075634           0.440630           0.172832          -0.064394           0.163101           0.133610
hessian_block                3       6          -0.724545           0.506981          -0.409141          -0.305092          -1.732285           0.744035          -1.346811           1.121592          -0.945260
hessian_block                3       7           0.020493           0.140504           0.072884           0.110800          -0.091918           0.124902          -0.235047           0.109887          -0.049162
hessian_block                3       8          -2.135144          -0.047901          -0.941921          -0.770053          -0.336744          -0.464940          -0.773750          -0.249206          -0.410359
hessian_block                3       9          -0.210112           0.395445           0.112903          -0.093750          -0.125547           0.002354          -0.363135           0.272116           0.044361
hessian_block                3      10           0.482320           0.407866           0.108646           1.528175          -2.282462           1.199741           0.697640           0.472002          -0.201069
hessian_block                3      11          -0.476817           0.070652          -0.069587          -0.665562           0.277754          -0.320607           0.004070           0.098637           0.126121
hessian_block                3      12          -2.691381          -0.323519          -0.929245          -0.524436          -0.310621          -0.234813          -1.200541          -0.235380          -0.606261
hessian_block                4       4           5.995951           0.184663          -1.966202           0.184663           7.022714           1.582122          -1.966202           1.582122           4.949367
hessian_block                4       5          -0.435625           0.657790           0.125236           0.116769          -2.256032          -1.038026           0.010592          -1.376004          -0.716191
hessian_block                4       6          -0.095868           0.434784           0.015254          -0.242044          -0.467336          -0.444947           0.233790          -0.335461          -0.434496
hessian_block                4       7          -1.983709          -0.861785           0.762434          -0.149682          -0.183741           0.264655           0.705075          -0.177563          -0.603808
hessian_block                4       8          -0.460921          -0.292726          -0.228012           0.064822          -0.464584          -0.172439          -0.182239          -0.061433           0.080534
hessian_block                4       9          -0.345515           0.605227           0.160724           0.059868          -2.302088          -1.120134           0.025424          -0.846174          -0.533328
hessian_block                4      10          -0.350564          -0.374873           0.001907          -0.144164           0.901254           0.610433           0.075540           0.585737           0.546072
hessian_block                4      11          -1.849767          -0.085049           0.771902          -0.852769          -1.370074          -0.343174           0.971033           0.019168          -0.596307
hessian_block                4      12           0.075994           0.388877          -0.153557           0.462585           0.500546           0.184420           0.017721           0.409394          -0.046851
hessian_block                5       5           5.515508          -0.362141          -0.987182          -0.362141           6.407083          -1.085630          -0.987182          -1.085630           7.759143
hessian_block                5       6           0.108595          -0.503657          -0.253269           0.165466          -0.445145           0.640628           0.429661          -0.899510           0.884255
hessian_block                5       7          -0.210605           1.122207          -0.066196          -0.923591           0.009437           0.363557           0.258177           0.723456          -1.010375
hessian_block                5       8          -0.128609           0.018518           0.367477           0.634484          -0.021462          -0.351012           0.239742           0.689749          -0.972239
hessian_block                5       9          -1.550392          -0.458639           1.608161          -0.516353          -1.940713           2.296252           1.614616           2.465156          -3.442524
hessian_block                5      10          -0.015626           0.655638           0.285967           0.028134           0.355444          -0.747214          -0.100361           0.105144          -1.124770
hessian_block                5      11           0.388919          -0.998330           0.214269           1.095642           0.053315           0.175000          -0.398469          -0.262114           1.303904
hessian_block                5      12           0.688984           0.286744          -0.160835          -0.438476          -0.719868           0.176753           0.245180          -1.153564           0.856988
hessian_block                6       6           5.693261           0.541041           2.205876           0.541041           6.198122           2.430367           2.205876           2.430367          10.608108
hessian_block                6       7           0.017998          -0.221142          -0.128754           0.473119           0.303883           0.781124          -0.178258          -0.098805          -0.644968
hessian_block                6       8           0.204626           0.546664           0.618091           0.051324           0.237959           0.644145          -0.277788          -0.460324          -1.608747
hessian_block                6       9           0.238287           0.202969          -0.024618           0.366832           0.997440           0.676870          -0.149828          -0.318740          -1.097614
hessian_block                6      10          -1.995929          -1.454549          -3.481205          -1.290500          -2.575431          -3.946491          -2.226964          -2.845824          -5.478961
hessian_block                6      11           0.254725           0.556741           0.173057          -0.677626           0.709409           0.751439          -0.317569           0.413087           0.895677
hessian_block                6      12           0.162823           0.170144           0.447388           0.189872           0.046513           0.231548           0.929910           0.732529           2.325709
hessian_block                7       7           5.368772           0.425341           1.250447           0.425341           6.154036          -1.472664           1.250447          -1.472664           7.837304
hessian_block                7       8          -0.161309          -0.163248           0.079436           0.141734          -0.416008           0.721071           0.307808          -0.573869           1.213262
hessian_block                7       9           0.267931           0.606662          -0.121300          -0.621172          -0.359435          -0.523844           0.480140          -0.474836           1.320813
hessian_block                7      10           0.206028          -0.603432           0.106978           0.272528          -0.505382          -0.279022          -0.353297          -0.862146           0.552328
hessian_block                7      11          -1.815279           0.550091          -1.885666           0.689941          -2.319288           2.715857          -1.577789           2.229504          -3.512412
hessian_block                7      12           0.259240           0.043732           0.178994          -0.575278           0.585369          -0.688500          -0.563914           0.320695          -1.368825
hessian_block                8       8           5.598537          -0.088731          -1.103588          -0.088731           5.755717           1.269635          -1.103588           1.269635           7.573427
hessian_block                8       9           0.612048          -0.639302          -0.158149           0.504695           0.095747          -0.420368          -0.006767           0.363626           1.266474
hessian_block                8      10          -0.365032          -0.158461           0.570064          -0.912412          -0.507124           0.693834          -0.558399          -0.306065           1.203544
hessian_block                8      11           0.347534          -0.234138          -0.295672           0.662654           1.210364           0.405391           0.112146          -0.474348          -1.091113
hessian_block                8      12          -1.549379           1.287962           1.603457           0.830515          -1.563162          -2.134081           1.818543          -1.740371          -3.844156
hessian_block                9       9           5.248846          -0.371588          -0.714715          -0.371588           6.525462          -1.675403          -0.714715          -1.675403           7.702456
hessian_block                9      10          -0.200840           0.101304           0.218133          -0.310925          -0.477953           0.223376          -0.307513          -0.451169           0.844124
hessian_block                9      11          -0.080921           0.887320          -0.387959          -0.729722           0.626206           0.524972           0.246372           0.270920          -1.141967
hessian_block                9      12          -0.288346          -0.495919           0.386626           0.223476          -0.117545          -0.572630          -0.012189           0.923371          -1.378011
hessian_block               10      10           5.988918           0.922186           1.998859           0.922186           7.579042           2.933303           1.998859           2.933303           8.953302
hessian_block               10      11          -0.164545          -0.306714           0.164474           0.252152          -1.594812          -0.532999           0.055618          -0.746204          -1.015415
hessian_block               10      12          -0.186395          -0.163757          -0.447825          -0.475462          -0.242502          -0.016377          -1.069355          -0.616693          -1.512396
hessian_block               11      11           5.517120           0.330978           0.988610           0.330978           8.026803          -1.183918           0.988610          -1.183918           7.743418
hessian_block               11      12          -0.024135           0.138049           0.004504           0.480674          -0.846384           0.551753           0.711122          -0.405465           0.856139
hessian_block               12      12           5.825252           0.116280          -0.927259           0.116280           5.747340           1.447972          -0.927259           1.447972           8.510911
hessian_block_lv             1       1          21.291545          -3.761619           3.814376          -3.761619          23.759216           2.751697           3.814376           2.751697           1.668486
hessian_block_lv_atom        1       1           0.613867          -0.094498           0.022581          -0.959005           0.351377          -0.180604          -0.557413           0.301708          -0.004042
hessian_block_lv_atom        1       2          -1.185310           0.202708          -0.155998          -0.924816           0.946961           0.022527          -0.441951           0.309261          -0.011375
hessian_block_lv_atom        1       3          -1.683866           0.473483          -0.248119           0.556738           0.125358           0.025592          -0.946621           0.559483          -0.042042
hessian_block_lv_atom        1       4          -0.026004           0.092926          -0.018207           0.585806           0.625456           0.192623           0.005619           0.068877           0.022583
hessian_block_lv_atom        1       5           0.698940          -0.337453           0.307784          -0.824354           1.020568           0.217708          -1.644063          -2.731692          -1.377811
hessian_block_lv_atom        1       6           1.622978          -1.408405          -0.141362           0.963565          -1.596047          -0.187010           0.602834          -4.801629          -1.443629
hessian_block_lv_atom        1       7          -1.377484          -0.030356           0.018351          -0.400180          -1.028023          -0.441421           1.747973           2.200034           1.372206
hessian_block_lv_atom        1       8           1.026835          -0.374116          -0.211878           0.301490          -0.297106           0.213338           0.878178           3.041920           1.390260
hessian_block_lv_atom        1       9           0.344742           0.246213          -0.169183           0.584455          -1.526202          -0.333929           1.839049           2.586005           1.434833
hessian_block_lv_atom        1      10          -2.066799           1.575425           0.227065          -1.162167           1.596467           0.264000           0.210147           4.365182           1.400618
hessian_block_lv_atom        1      11           1.550133          -0.170398           0.014615           0.973977          -0.026940           0.343559          -1.510725          -2.491201          -1.343925
hessian_block_lv_atom        1      12           0.481966          -0.175529           0.354350           0.304489          -0.191869          -0.136385          -0.183024          -3.407946          -1.397675
