# 
# This is the geometry file that corresponds to the current relaxation step.
# If you do not want this file to be written, set the "write_restart_geometry" flag to .false.
#  aims_uuid : EB7D3891-7107-4B48-A84A-AC0A7EE62B6E                                
# 
lattice_vector      5.83784590      0.00000000      0.00000000
lattice_vector      0.00000000      5.95038518      0.00000000
lattice_vector      0.00000000      0.00000000      7.51780753
atom_frac       0.50114457      0.00041031      0.00027992 Pd
atom_frac       0.00040865      0.00047024      0.50138386 Pd
atom_frac       0.00051776      0.50114212      0.00030600 Pd
atom_frac       0.50125587      0.50120177      0.50135851 Pd
atom_frac       0.61288166      0.11862130      0.40370396 Se
atom_frac       0.89029029      0.88374972      0.90433937 Se
atom_frac       0.11215248      0.38305510      0.59876748 Se
atom_frac       0.38942949      0.61938875      0.09790627 Se
atom_frac       0.38949149      0.88376277      0.59877271 Se
atom_frac       0.11214511      0.11869925      0.09793258 Se
atom_frac       0.89022175      0.61930068      0.40371466 Se
atom_frac       0.61289099      0.38302811      0.90436478 Se
# 
# What follows is the current estimated Hessian matrix constructed by the BFGS algorithm.
# This is NOT the true Hessian matrix of the system.
# If you do not want this information here, switch it off using the "hessian_to_restart_geometry" keyword.
# 
trust_radius             0.0122098308
hessian_block                1       1           6.335831          -0.976868          -2.568823          -0.976868           8.925680          -0.187804          -2.568823          -0.187804           5.138778
hessian_block                1       2          -1.018188           2.975267           0.948444          -0.508959           2.560070           0.754635          -0.528198           1.431321           0.498451
hessian_block                1       3          -1.442723           4.179917           1.362325           0.021369          -0.465910          -0.042098          -1.023650           2.360667           0.853929
hessian_block                1       4           0.517694           0.234835          -0.055650           0.404974          -0.997050          -0.317333           0.049116           0.106095           0.032534
hessian_block                1       5           0.550788          -2.089145          -0.796368          -1.648845           3.391313           1.399714          -0.078072          -0.352762           0.006121
hessian_block                1       6          -0.049315          -4.250853          -0.893821           2.026967          -4.537012          -1.724440           4.111519          -7.670359          -3.182256
hessian_block                1       7          -1.128173           2.194938           0.879460           0.519859          -0.749745          -0.232970           0.019073           0.134869          -0.005873
hessian_block                1       8           0.402184          -2.218791          -0.287045          -0.019089          -2.822766           0.400867          -0.912756           3.197004           0.397282
hessian_block                1       9          -0.093041          -0.051675           0.163132           0.713019          -3.153998          -1.127303          -0.223759           0.292426           0.144853
hessian_block                1      10          -4.111235           5.477212           2.689061          -1.483112           3.825850           1.191342          -1.188570           4.767922           1.324350
hessian_block                1      11           1.171354          -3.260526          -1.142130           0.509994          -1.010040          -0.466308           0.252106          -0.285157           0.017700
hessian_block                1      12           0.430735          -2.214308          -0.298584           0.440687          -3.319366           0.351698           2.092016          -3.794220          -2.124005
hessian_block                2       2           8.462348           2.462573           3.610726           2.462573           8.812288           2.804734           3.610726           2.804734           5.632861
hessian_block                2       3           4.316599           3.723344           2.196768          -0.673470          -0.547519          -0.313656           2.305989           1.932841           1.213223
hessian_block                2       4           0.180287           0.522076           0.085211          -1.113060          -0.170493          -0.176925           0.138622           0.441956           0.185157
hessian_block                2       5          -3.599632          -1.136996          -1.671053           3.598040           2.355835           1.812757          -1.152290          -0.549888          -0.851647
hessian_block                2       6          -4.673714          -4.004201          -2.330334          -4.234575          -4.307103          -2.483003          -7.327016          -6.570525          -4.045794
hessian_block                2       7           1.866475           1.058626           0.768357          -1.445524          -2.649546          -1.439114          -0.150057          -0.902239          -0.423685
hessian_block                2       8          -1.774941          -1.780096          -1.014746          -0.743932          -0.966230          -0.548897           2.340771           2.116512           1.399569
hessian_block                2       9          -2.102436           0.270377          -1.024058          -2.131843          -3.354573          -1.340707          -0.677340           0.494175          -0.236111
hessian_block                2      10           4.972002           3.888174           2.495313           4.139870           4.034598           2.576612           5.083580           4.833276           2.941383
hessian_block                2      11          -3.238273          -3.166981          -1.768793          -1.340324          -3.335067          -1.660223          -0.636334          -1.374500          -0.851584
hessian_block                2      12          -1.824617          -1.327937          -0.819194          -1.493019          -0.785234          -0.662899          -4.485093          -3.980977          -2.359959
hessian_block                3       3          11.397215          -0.808400           5.401655          -0.808400           6.226344          -1.459355           5.401655          -1.459355           6.704361
hessian_block                3       4           0.245600          -0.222054          -0.078263          -1.307887           0.304802          -0.663440           0.261301          -0.106730           0.111350
hessian_block                3       5          -2.654268           0.206799          -1.604591           4.396511          -0.047556           2.978707          -0.533692           0.146945          -0.211697
hessian_block                3       6          -6.770075           1.061565          -4.180763          -5.647238          -1.349516          -2.719456         -10.790178           1.628364          -6.885567
hessian_block                3       7           2.850353          -0.126577           1.875355          -1.324161           0.125067          -0.773004           0.015251          -0.045233           0.023009
hessian_block                3       8          -4.273505          -0.128291          -2.162297          -1.787229          -0.309846          -1.197534           2.527909          -0.545840           1.632725
hessian_block                3       9          -0.411843           0.373454           0.063414          -3.996959           0.194085          -2.467082           0.222527           0.146523           0.346500
hessian_block                3      10           6.880340          -0.011765           4.080780           6.569428          -2.427649           4.501738           7.091714           0.176775           3.880787
hessian_block                3      11          -4.341526           0.444418          -2.553982          -1.452311          -0.023332          -0.985097          -0.557922           0.142887          -0.281321
hessian_block                3      12          -4.230255          -0.137047          -2.123648          -2.545013          -0.031946          -1.508985          -7.197657           0.271418          -4.285434
hessian_block                4       4           5.890243           0.096036          -1.985222           0.096036           6.903745           1.433922          -1.985222           1.433922           4.868140
hessian_block                4       5          -0.407970           1.150006           0.206207           0.181287          -2.815405          -0.900443          -0.006677          -1.144497          -0.645702
hessian_block                4       6          -0.055722           1.336577          -0.127907          -0.195020           0.652521          -0.408113           0.365773           1.618380          -0.384481
hessian_block                4       7          -1.943955          -1.284375           0.799236          -0.273146          -0.069941           0.193307           0.845897           0.053867          -0.468729
hessian_block                4       8          -0.184909           0.345310          -0.198265           0.110612          -0.151900          -0.095525          -0.172673          -0.499612           0.165243
hessian_block                4       9          -0.278547           0.646076           0.124690           0.071163          -1.670491          -1.156654           0.106255          -0.790131          -0.437288
hessian_block                4      10          -0.440182          -1.541023           0.054564          -0.303229          -0.518241           0.421315          -0.020219          -0.908518           0.432773
hessian_block                4      11          -1.872621           0.510901           0.722793          -0.599089          -0.553839          -0.024211           0.881532           0.181404          -0.551814
hessian_block                4      12          -0.084006           0.756465          -0.045134           0.376529           0.733316           0.095081           0.034036           1.212881          -0.205316
hessian_block                5       5           6.187883          -2.532852          -0.855263          -2.532852           9.909693          -1.686295          -0.855263          -1.686295           7.682260
hessian_block                5       6           3.016995          -5.439952           0.552826           2.664555          -5.246447           1.236636           4.550416          -9.507384           1.810862
hessian_block                5       7          -1.630313           3.379963          -0.448393          -0.147480          -0.903994           0.491642           0.174668           0.568396          -1.034520
hessian_block                5       8           1.004975          -1.954219           0.705778           0.926631          -1.286636          -0.300453          -1.207921           3.426813          -1.340420
hessian_block                5       9          -1.273977          -0.443047           1.711070           1.415701          -5.139212           2.802688           1.366828           2.733339          -3.482196
hessian_block                5      10          -3.002479           6.138552          -0.461284          -2.268826           5.331247          -1.183100          -2.837935           6.142652          -1.655976
hessian_block                5      11           2.290200          -4.179266           0.752277           1.220892          -1.702472           0.093968          -0.254573          -0.861936           1.226148
hessian_block                5      12           1.083709          -1.496171          -0.186278           0.590715          -2.199341           0.445116           2.929587          -6.106318           1.598632
hessian_block                6       6          12.453727           7.089261          13.740389           7.089261          12.117183          13.118176          13.740389          13.118176          28.542142
hessian_block                6       7          -3.178537          -3.232039          -5.672020           1.880786           1.716406           3.381969          -0.108938          -0.313692          -0.776563
hessian_block                6       8           2.578490           2.836465           4.477852           1.706756           1.577958           2.856317          -4.025032          -4.130089          -7.665242
hessian_block                6       9           0.159333           0.253413           0.182413           4.791467           5.167877           8.166705          -0.584236          -0.918725          -1.931628
hessian_block                6      10          -9.395476          -8.491452         -15.542302          -7.892417          -8.283013         -14.084942         -10.292999         -10.149868         -17.751175
hessian_block                6      11           4.718594           4.729819           7.883895           1.369865           1.972545           2.829742           0.568712           1.119596           1.990878
hessian_block                6      12           2.761612           2.199847           4.019260           2.351148           2.165625           4.233556           7.682102           7.372977          13.380688
hessian_block                7       7           6.763525          -0.163601           1.229438          -0.163601           6.178289          -1.261191           1.229438          -1.261191           7.495520
hessian_block                7       8          -1.360941           0.590173          -0.279050          -0.687295           0.095542           0.607487           2.134638          -1.353786           1.032145
hessian_block                7       9           0.312981           0.570903          -0.188272          -2.626651           0.532153          -0.531014           0.714795          -0.427139           1.094417
hessian_block                7      10           3.721936          -2.205268           0.131295           3.336824          -2.050768           0.195279           3.523573          -2.666426           0.722758
hessian_block                7      11          -3.803685           1.451973          -1.917200          -0.329380          -1.444601           2.084996          -1.972064           2.299281          -3.424864
hessian_block                7      12          -0.903754           0.545488           0.227896          -1.520432           0.868165          -0.591526          -3.832376           1.787429          -1.131751
hessian_block                8       8           5.591985           0.518426          -2.522068           0.518426           5.836116           0.431325          -2.522068           0.431325           9.503972
hessian_block                8       9           0.289635          -0.450054          -0.237144           1.994002           1.213558          -2.942427          -0.388087           0.182457           1.398290
hessian_block                8      10          -2.758293          -1.833547           4.564338          -2.855853          -1.674760           4.378023          -3.267594          -1.737968           5.413447
hessian_block                8      11           2.022990           0.838585          -2.856704           0.796318           1.086305          -0.721622           0.680610          -0.399157          -1.452693
hessian_block                8      12           0.028240           1.420135           0.366643           1.856558          -0.950315          -3.356301           4.254914          -0.198918          -7.382454
hessian_block                9       9           5.012567          -0.458203          -0.752730          -0.458203           9.349429          -2.003196          -0.752730          -2.003196           7.573420
hessian_block                9      10          -0.145737          -4.687048           0.731851          -0.351192          -4.630923           0.959501          -0.515670          -5.660354           1.451493
hessian_block                9      11          -0.104305           3.720788          -0.755761          -0.574297           1.889157           0.006565           0.417043           0.833609          -1.122752
hessian_block                9      12           0.201282           1.194565           0.239657           0.214245           1.249962          -0.675800           0.056112           5.425732          -1.697133
hessian_block               10      10          13.867999           7.764712          10.365102           7.764712          12.697179           9.717483          10.365102           9.717483          17.262965
hessian_block               10      11          -5.096696          -4.541712          -5.216303          -1.529736          -2.139082          -1.691432          -0.811701          -1.381773          -1.676461
hessian_block               10      12          -2.926268          -2.114493          -2.724677          -2.968811          -2.517415          -2.823540          -8.297016          -7.291478          -9.244480
hessian_block               11      11           8.294822           1.618782           1.563178           1.618782           6.798422          -1.070810           1.563178          -1.070810           7.608721
hessian_block               11      12           1.525057           0.309285          -0.130587           1.833220           0.109028           0.796556           5.288730           1.604431           1.619904
hessian_block               12      12           5.504177           0.864173           1.474645           0.864173           6.324546           3.697043           1.474645           3.697043          14.933172
hessian_block_lv             1       1          26.298020          -1.954934           6.719515          -1.954934          24.516913           3.544926           6.719515           3.544926           3.219087
hessian_block_lv_atom        1       1          -1.229362          -0.638400          -0.797694           3.026554           2.040848           2.064874           1.412917           0.908938           0.836147
hessian_block_lv_atom        1       2           3.074829           1.799410           1.986084           3.863861           2.324844           1.966157           2.087371           1.071206           1.082100
hessian_block_lv_atom        1       3           4.567843           2.716423           2.851242          -0.532679          -0.021994          -0.209084           3.145233           1.898453           1.867416
hessian_block_lv_atom        1       4           0.140282           0.096329          -0.008913           0.241883           0.197112          -0.321623           0.377636           0.121592           0.064482
hessian_block_lv_atom        1       5          -2.185624          -1.307657          -1.026642           3.919018           2.897801           2.873821          -2.292225          -2.889065          -1.712139
hessian_block_lv_atom        1       6          -5.020617          -3.885115          -3.709322          -5.684735          -4.015882          -3.648553         -10.796256          -8.645444          -7.073084
hessian_block_lv_atom        1       7           2.048338           1.176735           1.795922          -1.390872          -1.405125          -1.145193           0.835169           2.127319           1.264363
hessian_block_lv_atom        1       8          -2.172582          -1.208162          -1.542150          -1.499799          -0.898126          -0.532465           4.484284           4.377046           3.226181
hessian_block_lv_atom        1       9           0.161202           0.237035          -0.248887          -4.407226          -3.248814          -2.730724           1.635703           2.702954           1.596977
hessian_block_lv_atom        1      10           5.355355           4.004509           3.968871           5.960837           3.857452           3.646183           7.980104           6.886422           5.288647
hessian_block_lv_atom        1      11          -3.230267          -1.991252          -2.492360          -2.205655          -0.736843          -0.614084          -1.955047          -2.623944          -1.675315
hessian_block_lv_atom        1      12          -1.509398          -0.999855          -0.776151          -1.291189          -0.991273          -1.349311          -6.914888          -5.935476          -4.765775
symmetry_n_params 39 3 36
symmetry_params a1 b2 c3 x0 x1 x2 x3 x4 x5 x6 x7 x8 x9 x10 x11 x12 x13 x14 x15 x16 x17 x18 x19 x20 x21 x22 x23 x24 x25 x26 x27 x28 x29 x30 x31 x32 x33 x34 x35
symmetry_lv a1 , 0 , 0 
symmetry_lv 0 , b2 , 0 
symmetry_lv 0 , 0 , c3
symmetry_frac x0 , x1 , x2
symmetry_frac x3 , x4 , x5
symmetry_frac x6 , x7 , x8
symmetry_frac x9 , x10 , x11
symmetry_frac x12 , x13 , x14
symmetry_frac x15 , x16 , x17
symmetry_frac x18 , x19 , x20
symmetry_frac x21 , x22 , x23
symmetry_frac x24 , x25 , x26
symmetry_frac x27 , x28 , x29
symmetry_frac x30 , x31 , x32
symmetry_frac x33 , x34 , x35
