# 
# This is the geometry file that corresponds to the current relaxation step.
# If you do not want this file to be written, set the "write_restart_geometry" flag to .false.
#  aims_uuid : FCF02143-677A-4E4C-A373-7C4C032DBC82                                
# 
lattice_vector      5.85110407      0.00000000      0.00000000
lattice_vector      0.00000000      5.95726436      0.00000000
lattice_vector      0.00000000      0.00000000      7.44923990
atom_frac       0.50224838      0.00169212      0.00157626 Pd
atom_frac       0.00167892      0.00168069      0.50238329 Pd
atom_frac       0.00174248      0.50225708      0.00158395 Pd
atom_frac       0.50231224      0.50224799      0.50237829 Pd
atom_frac       0.61409904      0.11974068      0.40423971 Se
atom_frac       0.89101252      0.88481126      0.90472309 Se
atom_frac       0.11350747      0.38426777      0.60041170 Se
atom_frac       0.39042751      0.62031733      0.09972664 Se
atom_frac       0.39045126      0.88482442      0.60041312 Se
atom_frac       0.11351616      0.11972708      0.09972355 Se
atom_frac       0.89101072      0.62031732      0.40424750 Se
atom_frac       0.61411320      0.38423618      0.90471279 Se
# 
# What follows is the current estimated Hessian matrix constructed by the BFGS algorithm.
# This is NOT the true Hessian matrix of the system.
# If you do not want this information here, switch it off using the "hessian_to_restart_geometry" keyword.
# 
trust_radius             0.0122098308
hessian_block                1       1           6.268203          -0.433434          -2.382651          -0.433434           7.292473          -0.762207          -2.382651          -0.762207           4.885716
hessian_block                1       2          -0.608019           1.469351           0.394944          -0.443654           1.429589           0.315000          -0.523417           0.764244           0.287164
hessian_block                1       3          -0.932286           2.013572           0.587497           0.140638          -0.412984          -0.001462          -0.700671           1.028817           0.353404
hessian_block                1       4           0.528456           0.194565          -0.077986           0.062939          -0.446839          -0.147484          -0.068881           0.169844           0.061140
hessian_block                1       5           0.380884          -1.157090          -0.450330          -0.967449           1.404302           0.725973          -0.082750          -0.027064           0.107291
hessian_block                1       6          -0.945817          -1.513599           0.057631           1.387243          -2.070998          -0.886984           2.994274          -3.206401          -1.640616
hessian_block                1       7          -0.825078           1.081588           0.517528           0.326456          -0.148138          -0.051327           0.245977          -0.145442          -0.063367
hessian_block                1       8           0.168659          -1.199763           0.061546          -0.077723          -2.360303           0.601178          -0.409002           1.643193          -0.173689
hessian_block                1       9          -0.151390           0.044930           0.190380           0.276264          -1.574323          -0.551994           0.015004          -0.163425           0.010938
hessian_block                1      10          -3.349309           2.641277           1.738938          -1.080942           1.492982           0.398551          -0.496821           1.665682           0.277953
hessian_block                1      11           0.677431          -1.634756          -0.579074           0.756780          -0.664769          -0.293133           0.231007           0.059416           0.103761
hessian_block                1      12           0.354177          -1.506639          -0.058422           0.052877          -2.293968           0.653890           1.177933          -1.026655          -1.107830
hessian_block                2       2           7.176287           1.731757           3.238520           1.731757           9.056758           3.103698           3.238520           3.103698           5.868647
hessian_block                2       3           2.559648           2.962209           1.851172          -0.759097          -0.949541          -0.622047           1.196304           1.385441           0.971239
hessian_block                2       4           0.184021           0.584697           0.143372          -0.441981           0.752043           0.448588           0.295067           0.820116           0.432241
hessian_block                2       5          -2.893848          -0.982220          -1.658170           1.712236           0.819401           0.866500          -0.935918          -0.590262          -0.904455
hessian_block                2       6          -2.153666          -2.097496          -1.203989          -2.149228          -3.193482          -1.871007          -3.553393          -4.533659          -2.963755
hessian_block                2       7           0.862804           0.413618           0.374282          -0.836831          -2.079243          -1.062763          -0.590423          -1.676101          -0.978189
hessian_block                2       8          -0.986803          -1.491097          -0.893000          -0.443529          -1.040899          -0.670240           0.883843           0.970630           0.747245
hessian_block                2       9          -1.993677           0.430657          -0.916166          -0.723617          -2.474152          -0.857081          -1.212918          -0.207304          -0.712565
hessian_block                2      10           2.506216           2.389719           1.638552           2.386556           3.657594           2.480375           2.546521           3.677177           2.362468
hessian_block                2      11          -1.771518          -2.172109          -1.183758          -1.459848          -4.477517          -2.538176          -0.366331          -1.307797          -0.811637
hessian_block                2      12          -1.315535          -1.326081          -0.867398          -0.485769           0.146475          -0.042093          -1.896215          -1.956939          -1.196538
hessian_block                3       3           9.105327          -1.052085           3.936088          -1.052085           6.416456          -1.574590           3.936088          -1.574590           5.763685
hessian_block                3       4           0.308856          -0.254737          -0.060881          -0.185317           0.059704          -0.017104           0.565293          -0.252739           0.284706
hessian_block                3       5          -1.813834           0.382763          -1.040978           1.621726           0.084683           1.307304          -0.300348           0.246805          -0.066334
hessian_block                3       6          -3.164590           0.959584          -1.975993          -2.811822          -1.181663          -0.958826          -5.699224           1.921992          -3.727250
hessian_block                3       7           1.404259          -0.152143           1.003388          -0.362422           0.042082          -0.231851          -0.790117           0.211125          -0.401165
hessian_block                3       8          -3.294199           0.013742          -1.529599          -1.498156          -0.161358          -0.967659           0.452228          -0.459075           0.358410
hessian_block                3       9          -0.222185           0.332458           0.168239          -2.012855           0.233175          -1.237439          -0.652085           0.330002          -0.141741
hessian_block                3      10           3.470796          -0.115590           1.993230           4.396309          -2.876990           3.110250           3.750670          -0.134273           1.801834
hessian_block                3      11          -2.238339           0.453475          -1.262085          -2.061815           0.551029          -1.228163          -0.205934           0.205802          -0.085319
hessian_block                3      12          -3.617540           0.050993          -1.727044          -1.009343          -0.157568          -0.616181          -3.495241           0.128461          -2.009605
hessian_block                4       4           5.958317           0.163157          -1.965349           0.163157           7.007986           1.588098          -1.965349           1.588098           4.968386
hessian_block                4       5          -0.471052           0.574948           0.019463           0.074981          -2.234138          -0.881933          -0.007554          -1.396224          -0.733759
hessian_block                4       6           0.005985           0.415210          -0.212282          -0.195517          -0.497893          -0.673200           0.374709          -0.447925          -0.838193
hessian_block                4       7          -2.025117          -0.852266           0.890296          -0.153888          -0.187035           0.222733           0.735751          -0.161970          -0.656788
hessian_block                4       8          -0.271523          -0.222767          -0.342073           0.036254          -0.520479          -0.238587          -0.226821          -0.013814           0.194476
hessian_block                4       9          -0.268622           0.663626           0.156757           0.146951          -2.312002          -1.298689           0.035308          -0.839664          -0.562178
hessian_block                4      10          -0.488205          -0.340361           0.282150          -0.223027           0.927290           0.872588           0.003577           0.669572           0.825856
hessian_block                4      11          -1.809944          -0.099935           0.610269          -0.823027          -1.406899          -0.471098           0.922565          -0.022353          -0.611066
hessian_block                4      12          -0.085261           0.262747          -0.230711           0.449590           0.505286           0.142867           0.123309           0.340280          -0.262953
hessian_block                5       5           5.933725          -1.298691          -0.911972          -1.298691           7.575318          -1.300075          -0.911972          -1.300075           7.744918
hessian_block                5       6           1.462063          -2.156566           0.082870           1.554728          -2.175458           0.936040           2.541229          -4.023818           1.386700
hessian_block                5       7          -1.021331           2.051135          -0.264530          -0.623520          -0.309233           0.424263           0.637622           0.395264          -0.910940
hessian_block                5       8           0.683082          -0.615376           0.619895           0.880791          -0.616271          -0.311329          -0.293631           1.604635          -1.106074
hessian_block                5       9          -1.378420          -0.349496           1.678028           0.576562          -3.230223           2.571047           1.823973           2.302051          -3.377018
hessian_block                5      10          -1.619711           2.700504          -0.126511          -1.560103           2.322655          -1.090679          -1.583082           2.315542          -1.450710
hessian_block                5      11           1.399655          -2.192763           0.443828           1.760780          -0.957952           0.311460          -0.382474          -0.495182           1.274064
hessian_block                5      12           0.904699          -0.580239          -0.195036          -0.108947          -1.036060           0.226017           1.298351          -2.816261           1.138183
hessian_block                6       6           7.970519           3.016974           6.502247           3.016974           8.746423           7.120940           6.502247           7.120940          18.046123
hessian_block                6       7          -1.297723          -1.593801          -2.724126           0.959706           0.756657           1.798505           0.274245           0.395432           0.373169
hessian_block                6       8           0.917168           1.553734           2.225109           0.914535           1.120701           1.966023          -1.517079          -1.840646          -3.615592
hessian_block                6       9           0.019185           0.059479          -0.127582           2.144229           2.923500           4.086137           0.080338          -0.070726          -0.530551
hessian_block                6      10          -4.779753          -4.534621          -8.608016          -4.069569          -5.487019          -9.183525          -5.313715          -6.138597         -10.841560
hessian_block                6      11           1.959697           2.318284           3.486723           0.733489           2.220130           3.172418           0.072776           0.728296           1.432426
hessian_block                6      12           1.572845           1.394550           2.588050           0.693508           0.486126           1.329315           3.152949           3.259277           6.020964
hessian_block                7       7           6.093837           0.184786           1.021058           0.184786           6.209176          -1.402031           1.021058          -1.402031           7.890453
hessian_block                7       8          -0.628167           0.076558           0.156991          -0.375231          -0.225079           0.970987           1.094731          -0.904498           0.890761
hessian_block                7       9           0.400993           0.570527          -0.241832          -1.643966           0.015014          -0.188612           0.376709          -0.449727           1.333891
hessian_block                7      10           1.854890          -1.242648          -0.474180           1.837257          -1.042968          -0.842737           1.483506          -1.554306          -0.176380
hessian_block                7      11          -2.750106           0.854700          -1.569058          -0.148922          -2.002225           3.063519          -1.801827           2.290647          -3.388820
hessian_block                7      12          -0.503349           0.246578           0.593968          -0.802056           0.618018          -0.619434          -1.971018           0.920352          -0.810760
hessian_block                8       8           5.228594           0.450624          -1.574645           0.450624           5.899375           0.942785          -1.574645           0.942785           8.083871
hessian_block                8       9           0.200388          -0.513248          -0.173696           1.034422           0.792993          -1.420688           0.042641           0.502118           1.076968
hessian_block                8      10          -1.202496          -1.178085           2.015110          -1.949625          -1.518628           2.217694          -1.822793          -1.231664           2.669340
hessian_block                8      11           1.002867           0.410490          -1.288238           1.247984           1.627290          -0.242107           0.505962          -0.478321          -1.231175
hessian_block                8      12          -0.251659           1.393278           1.037199           1.101566          -1.350315          -2.498111           2.549970          -1.085289          -4.792677
hessian_block                9       9           5.025861          -0.569547          -0.784079          -0.569547           7.912650          -1.507257          -0.784079          -1.507257           7.691117
hessian_block                9      10           0.044399          -2.084034          -0.087118          -0.115033          -2.639149          -0.068671          -0.275594          -2.898585           0.438234
hessian_block                9      11          -0.219333           2.209677          -0.238687          -0.734689           1.740088           0.721700           0.388418           0.597752          -1.068706
hessian_block                9      12           0.108714           0.645915           0.600913           0.180338           0.259454          -0.549100          -0.062875           2.705406          -1.056525
hessian_block               10      10           9.351219           4.356617           5.712677           4.356617          10.881932           6.633411           5.712677           6.633411          12.778627
hessian_block               10      11          -2.298051          -2.321380          -2.167730          -1.437883          -3.292561          -2.258819          -0.424558          -1.129594          -1.350406
hessian_block               10      12          -1.924086          -1.657060          -1.837214          -1.154896          -0.778116          -0.745140          -3.660274          -3.397662          -4.233391
hessian_block               11      11           6.722803           1.402473           1.239869           1.402473           8.813641          -1.047719           1.239869          -1.047719           7.671309
hessian_block               11      12           0.890748           0.764678          -0.179474           0.771849          -0.503229           0.599054           2.507942           0.810116           1.167432
hessian_block               12      12           5.432159           0.311283           0.275169           0.311283           5.750923           2.118915           0.275169           2.118915          10.245566
hessian_block_lv             1       1          23.515205          -3.504588           5.365386          -3.504588          23.724929           2.823695           5.365386           2.823695           2.554749
hessian_block_lv_atom        1       1          -0.155714          -0.137856          -0.443593           0.255637           0.471256           0.665429           0.267489           0.308643           0.414264
hessian_block_lv_atom        1       2           0.230161           0.301032           0.745274           1.070108           1.076650           1.213306           0.541691           0.385982           0.608561
hessian_block_lv_atom        1       3           0.492365           0.646795           1.148792           0.002599           0.131861          -0.229305           0.617503           0.630872           0.855213
hessian_block_lv_atom        1       4           0.025676           0.067366          -0.061063           0.747331           0.656715           0.281672           0.207767           0.091040           0.160272
hessian_block_lv_atom        1       5          -0.243960          -0.381539          -0.336544           0.884365           1.163289           1.259042          -1.927710          -2.818059          -1.650844
hessian_block_lv_atom        1       6          -0.867331          -1.554213          -1.551162          -1.546509          -1.837978          -1.766842          -3.690404          -5.001211          -3.917008
hessian_block_lv_atom        1       7           0.077887           0.108286           0.903365          -0.913231          -1.122619          -0.814850           1.207358           2.179991           1.098319
hessian_block_lv_atom        1       8          -0.413135          -0.366343          -0.765690          -0.252904          -0.315168          -0.171516           2.119042           3.089884           2.100257
hessian_block_lv_atom        1       9           0.147135           0.249385          -0.161740          -1.452666          -1.673399          -1.503858           1.595105           2.589882           1.324630
hessian_block_lv_atom        1      10           0.975657           1.711830           1.901910           1.732510           1.843137           2.028358           3.239590           4.570846           3.240459
hessian_block_lv_atom        1      11          -0.233999          -0.338431          -1.088446          -0.338220          -0.092354          -0.438751          -1.711826          -2.582587          -1.614466
hessian_block_lv_atom        1      12          -0.034744          -0.306312          -0.291105          -0.189021          -0.301388          -0.522686          -2.465602          -3.445281          -2.619656
symmetry_n_params 39 3 36
symmetry_params a1 b2 c3 x0 x1 x2 x3 x4 x5 x6 x7 x8 x9 x10 x11 x12 x13 x14 x15 x16 x17 x18 x19 x20 x21 x22 x23 x24 x25 x26 x27 x28 x29 x30 x31 x32 x33 x34 x35
symmetry_lv a1 , 0 , 0 
symmetry_lv 0 , b2 , 0 
symmetry_lv 0 , 0 , c3
symmetry_frac x0 , x1 , x2
symmetry_frac x3 , x4 , x5
symmetry_frac x6 , x7 , x8
symmetry_frac x9 , x10 , x11
symmetry_frac x12 , x13 , x14
symmetry_frac x15 , x16 , x17
symmetry_frac x18 , x19 , x20
symmetry_frac x21 , x22 , x23
symmetry_frac x24 , x25 , x26
symmetry_frac x27 , x28 , x29
symmetry_frac x30 , x31 , x32
symmetry_frac x33 , x34 , x35
