# 
# This is the geometry file that corresponds to the current relaxation step.
# If you do not want this file to be written, set the "write_restart_geometry" flag to .false.
#  aims_uuid : 8BC70E27-907F-450B-A5E5-6B7071AD3E49                                
# 
lattice_vector      3.28796246      0.00000000      0.00000000
lattice_vector     -1.64398123      2.84745902      0.00000000
lattice_vector      0.00000000      0.00000000     13.22848030
atom_frac       0.33000932      0.66542996      0.25328998 W
atom_frac       0.67658456      0.34115906      0.75331751 W
atom_frac       0.34314655      0.67443758      0.88091436 Se
atom_frac       0.66347736      0.33218408      0.38088743 Se
atom_frac       0.66348264      0.33217311      0.12569867 Se
atom_frac       0.34313196      0.67444860      0.62572444 Se
# 
# What follows is the current estimated Hessian matrix constructed by the BFGS algorithm.
# This is NOT the true Hessian matrix of the system.
# If you do not want this information here, switch it off using the "hessian_to_restart_geometry" keyword.
# 
trust_radius             0.0011936472
hessian_block                1       1         481.338451         161.899407         -15.426694         161.899407          72.197259           7.110687         -15.426694           7.110687         393.413199
hessian_block                1       2        -471.756750        -168.977079          15.211819        -172.164123         -62.500191          -9.757612          -1.398189           5.130704          76.378202
hessian_block                1       3          -0.777344          -0.524779          -3.428843           7.527229           2.877145           6.060146          48.717559           5.180252         -13.823897
hessian_block                1       4          -3.598364           3.874724           3.567119          -2.571740          -7.308642          -4.708691          35.156940           8.562874        -187.875620
hessian_block                1       5          -3.795400           3.946858           3.671380          -2.399484          -7.392713          -4.913929         -30.007323         -17.065348        -192.812928
hessian_block                1       6          -0.551361          -0.648748          -3.594781           7.279094           2.986375           6.209399         -37.042293          -8.919169         -60.830965
hessian_block                2       2         482.859055         166.682069           0.802886         166.682069          73.162611          -5.873088           0.802886          -5.873088         286.656001
hessian_block                2       3          -3.835697           3.311454          -1.766657          -4.775368          -7.426350           2.248529         -44.196924          -7.330845        -127.344831
hessian_block                2       4          -1.259317          -0.756061           2.080787           5.680449           2.483187          -1.910278         -40.184838          -0.292450         -35.414208
hessian_block                2       5          -1.194081          -0.564413           2.186830           5.608779           2.306614          -2.028654          34.968914          11.296146         -39.365747
hessian_block                2       6          -3.953977           3.061458          -1.905657          -4.648466          -7.166638           2.432787          33.398144          11.957849        -146.461426
hessian_block                3       3           3.394685          -2.101104           2.716933          -2.101104           3.589920          -2.688574           2.716933          -2.688574         137.714742
hessian_block                3       4           0.041444           0.146306          -5.048297           0.136323          -0.166273           3.798795           3.478806          -4.775886         -13.696712
hessian_block                3       5           0.087096           0.066637          -4.690287           0.102216          -0.091915           3.504770          -0.819249          -0.536299          34.686743
hessian_block                3       6           1.949049          -1.293316           2.501017          -1.353725           2.076705          -2.464397          -0.180990          -0.307916          -3.088055
hessian_block                4       4           3.518648          -2.272841          -0.911655          -2.272841           3.723720           0.601080          -0.911655           0.601080         204.168420
hessian_block                4       5           2.131953          -1.622526          -1.435970          -1.585907           2.373542           1.118772          -1.752257           3.433094           5.471460
hessian_block                4       6           0.024868           0.220719           3.896717           0.164163          -0.246301          -5.214390           2.064304          -1.213999          41.794650
hessian_block                5       5           3.571629          -2.353741          -1.333241          -2.353741           3.847753           3.128490          -1.333241           3.128490         194.427812
hessian_block                5       6           0.058034           0.198522          -1.056844           0.097569          -0.184047          -0.256083           1.601287          -0.809449          12.040650
hessian_block                6       6           3.332619          -1.968251           0.159549          -1.968251           3.393139          -0.707315           0.159549          -0.707315         170.993136
hessian_block_lv             1       1          58.741711           2.880592           0.000000           2.880592           1.474405           0.000000           0.000000           0.000000           0.000000
hessian_block_lv_atom        1       1           4.297869           7.289771           0.000000           3.633139           1.164658           0.000000          30.445270          -0.960173           0.000000
hessian_block_lv_atom        1       2          -4.812651          -6.867064           0.000000          -2.735540          -1.233994           0.000000          21.595574          -1.262967           0.000000
hessian_block_lv_atom        1       3          -0.500278           0.328100           0.000000           0.777212          -0.325490           0.000000           3.343270           6.648282           0.000000
hessian_block_lv_atom        1       4           0.745282          -0.542977           0.000000          -1.220990           0.361939           0.000000           6.044994           6.347697           0.000000
hessian_block_lv_atom        1       5           0.745636          -0.543539           0.000000          -1.219856           0.364801           0.000000         -30.877921          -3.391376           0.000000
hessian_block_lv_atom        1       6          -0.475859           0.335709           0.000000           0.766035          -0.331913           0.000000         -30.551188          -7.381463           0.000000
