# 
# This is the geometry file that corresponds to the current relaxation step.
# If you do not want this file to be written, set the "write_restart_geometry" flag to .false.
#  aims_uuid : 6ECED62A-45CE-4C16-AB5C-48E0BB8F1D38                                
# 
lattice_vector      3.28819162      0.00000000      0.00000000
lattice_vector     -1.64409581      2.84765747      0.00000000
lattice_vector      0.00000000      0.00000000    102.79404960
atom_frac       0.00012040      0.00022348      0.50025172 Se
atom_frac       0.33348285      0.66696183      0.48382539 W
atom_frac       0.00009648      0.00021415      0.46739921 Se
# 
# What follows is the current estimated Hessian matrix constructed by the BFGS algorithm.
# This is NOT the true Hessian matrix of the system.
# If you do not want this information here, switch it off using the "hessian_to_restart_geometry" keyword.
# 
trust_radius             0.0218404201
hessian_block                1       1           1.117669          -0.547931          -0.353962          -0.547931           1.049907         -13.381357          -0.353962         -13.381357        4849.559286
hessian_block                1       2          -1.028727           0.460260          15.914305           0.569839          -1.105436          44.157500           2.667592           7.103787       -2524.288600
hessian_block                1       3           0.131563          -0.022581         -15.560343          -0.132161           0.276034         -30.776143          -2.313630           6.277571       -2105.894783
hessian_block                2       2           2.373225          -1.003739          -5.116971          -1.003739           2.844893         -17.890325          -5.116971         -17.890325        3593.496645
hessian_block                2       3          -1.123992           0.323646           2.449378           0.433226          -1.518951          10.786539         -10.797335         -26.267175        -849.832142
hessian_block                3       3           1.212934          -0.411318          13.110965          -0.411318           1.463422          19.989604          13.110965          19.989604        3175.102828
hessian_block_lv             1       1          36.126571           0.759723           0.000000           0.759723           0.038489           0.000000           0.000000           0.000000           0.000000
hessian_block_lv_atom        1       1          -0.262876           0.003559           0.000000          -0.035732          -0.037945           0.000000         236.710080          12.310711           0.000000
hessian_block_lv_atom        1       2           1.878014           0.052982           0.000000           1.261721           0.124924           0.000000         -55.184050          -3.116151           0.000000
hessian_block_lv_atom        1       3          -1.615138          -0.056540           0.000000          -1.225989          -0.086979           0.000000        -181.526030          -9.194560           0.000000
