# 
# This is the geometry file that corresponds to the current relaxation step.
# If you do not want this file to be written, set the "write_restart_geometry" flag to .false.
#  aims_uuid : 5048FDB4-0142-4ED0-A6B6-00D12EA32420                                
# 
lattice_vector      5.69520829      0.00000000      0.00000000
lattice_vector      0.00000000      5.89256247      0.00000000
lattice_vector      0.00000000      0.00000000    101.32574280
atom_frac       0.71682402     -0.00269642      0.49985712 Se
atom_frac       0.60860308      0.61639899      0.49231419 Pd
atom_frac       0.00043405      0.49724851      0.49985625 Se
atom_frac       0.10856231      0.11644663      0.49231376 Pd
atom_frac       0.21687687      0.73551588      0.48478199 Se
atom_frac       0.50037964      0.23557078      0.48478282 Se
# 
# What follows is the current estimated Hessian matrix constructed by the BFGS algorithm.
# This is NOT the true Hessian matrix of the system.
# If you do not want this information here, switch it off using the "hessian_to_restart_geometry" keyword.
# 
trust_radius             0.1120692807
hessian_block                1       1           0.846680           0.002647           3.357372           0.002647           1.209851          -2.862023           3.357372          -2.862023         268.454101
hessian_block                1       2           0.004324          -0.151816          -0.757438          -0.163975          -0.603383          -4.356566           0.017619          -3.440193         -52.517724
hessian_block                1       3          -0.062251           0.030542          -1.898668           0.031745           0.250832          -2.056308           1.679111          -0.950074          75.931351
hessian_block                1       4          -0.343239          -0.063512           2.969863          -0.163511          -0.023717           0.467498           1.761591          -0.893808         -52.154248
hessian_block                1       5           0.043721           0.088714           1.923065           0.087605          -0.203396           1.860629          -1.685194           2.088263         -43.614825
hessian_block                1       6          -0.200234           0.093425          -5.594195           0.205490          -0.326216           6.946769          -5.130500           6.057835        -105.031848
hessian_block                2       2           1.249974           0.020729           5.049377           0.020729           1.417837           3.724441           5.049377           3.724441         229.197164
hessian_block                2       3          -0.379754           0.165146          -1.861748           0.290031          -0.265771           2.308417          -1.052548          -1.637418         -35.910868
hessian_block                2       4          -0.212648          -0.017990          -1.421478          -0.283353           0.047654          -0.706301          -1.581404           1.645626          71.780974
hessian_block                2       5          -0.416804          -0.087986          -1.693136           0.282148           0.024079           1.935929          -0.982396           1.681261         -52.604805
hessian_block                2       6           0.043909           0.084076          -0.090634          -0.157739          -0.316446          -3.822292          -0.675591          -1.057344         -68.877933
hessian_block                3       3           0.868793          -0.047846          -3.968272          -0.047846           1.410009          -3.037471          -3.968272          -3.037471         259.473879
hessian_block                3       4          -0.000556          -0.119638           0.475160           0.187889          -0.632736          -3.376688           1.415686          -2.679045         -46.352734
hessian_block                3       5          -0.174223          -0.137538           4.962222          -0.279665          -0.193367           6.380408           4.687780           5.160968        -116.256862
hessian_block                3       6           0.036991          -0.016755          -2.095673          -0.056066          -0.264996           2.621244           1.625222           0.303438         -45.817960
hessian_block                4       4           1.193135           0.239020          -4.789320           0.239020           1.406620           4.478549          -4.789320           4.478549         211.544365
hessian_block                4       5           0.021394           0.153627           0.817912          -0.046140          -0.550057          -2.153436           0.146250          -2.343842         -44.048202
hessian_block                4       6          -0.369086          -0.133671           2.375534           0.008260           0.056207          -0.397886           2.619524           1.480785         -49.703348
hessian_block                5       5           0.950320          -0.048951          -4.056471          -0.048951           1.159799          -4.693977          -4.056471          -4.693977         264.519971
hessian_block                5       6          -0.135407           0.005004           1.890032           0.032134           0.066913          -1.892672          -1.953592          -3.329553          83.071529
hessian_block                6       6           0.912827          -0.032079           3.514937          -0.032079           1.088508          -3.455162           3.514937          -3.455162         277.426366
hessian_block_lv             1       1          18.030849           9.219996          -0.474444           9.219996          10.355975          -0.062357          -0.474444          -0.062357           0.071334
hessian_block_lv_atom        1       1          -0.101124           0.185157          -0.004388          -0.518468           0.157873          -0.026097           9.201789           8.993421           0.720889
hessian_block_lv_atom        1       2          -0.188135          -0.209450          -0.018782           0.058157          -0.230679           0.004428          -4.633454          -5.896024          -0.550255
hessian_block_lv_atom        1       3           0.151356          -0.174168           0.007000          -0.829042          -0.203348          -0.060941           7.914083           7.280934           0.566206
hessian_block_lv_atom        1       4           0.096365           0.194807           0.014534           0.211217           0.127325           0.020693          -1.886721          -4.433343          -0.284141
hessian_block_lv_atom        1       5          -0.062933           0.208258          -0.003256           0.384345          -0.107023           0.013589          -5.912474          -3.797692          -0.300452
hessian_block_lv_atom        1       6           0.104470          -0.204605           0.004892           0.693790           0.255852           0.048328          -4.683223          -2.147296          -0.152247
