#=======================================================
# FHI-aims file: geometry.in
# Created using the Atomic Simulation Environment (ASE)
# Mon Jan 20 10:04:09 2020
#=======================================================
lattice_vector 19.1113999999999997 0.0000000000000000 0.0000000000000000 
lattice_vector 3.0226559137150564 7.7569114812651687 0.0000000000000000 
lattice_vector 0.0000000000000000 0.0000000000000000 152.7210000000000036 
atom 9.0178996195376939 0.3148530370245532 22.3736265000000003 H
atom 20.0849275763952200 4.1933087776571378 22.3736265000000003 H
atom 14.6113049903733714 2.3038027099357552 22.4118067500000002 H
atom 6.5669329472309004 6.1822584505683400 22.4118067500000002 H
atom 8.2027990498041561 0.7008369523323080 22.9860377100000015 C
atom 19.2698270066616821 4.5792926929648923 22.9860377100000015 C
atom 13.7727707510923381 2.6634906953220212 23.0074186500000017 C
atom 5.7283987079498671 6.5419464359546051 23.0074186500000017 C
atom 12.8079977016953190 0.7393888023941959 23.0944696199999981 H
atom 4.7636256585528471 4.6178445430267798 23.0944696199999981 H
atom 8.9322172614127222 2.7281833370757727 22.9585479299999982 H
atom 19.9992452182702500 6.6066390777083566 22.9585479299999982 H
atom 3.4359537631553034 0.8095112821848329 23.0914152000000001 H
atom 14.5029817200128299 4.6879670228174177 23.0914152000000001 H
atom 18.3159717776730488 2.6616290365665174 23.1906838500000028 H
atom 10.2715997345305752 6.5400847771991018 23.1906838500000028 H
atom 12.7590626948425374 1.7869596979390570 23.3922755699999989 C
atom 4.7146906517000655 5.6654154385716406 23.3922755699999989 C
atom 8.1516402397796668 2.0551161278463939 23.3128606500000011 C
atom 19.2186681966371964 5.9335718684789782 23.3128606500000011 C
atom 18.2727866838306845 3.7190512096925850 23.4518367600000026 C
atom 10.2284146406882126 7.5975069503251698 23.4518367600000026 C
atom 2.6437920115656355 0.1253516895372451 23.3938027800000015 C
atom 13.7108199684231629 4.0038074301698288 23.3938027800000015 C
atom 11.6910855092570571 2.2459361502855173 24.1650438300000019 C
atom 3.6467134661145857 6.1243918909181012 24.1650438300000019 C
atom 7.1090205062576759 2.5443445349697882 24.1024282200000002 C
atom 18.1760484631152046 6.4228002756023725 24.1024282200000002 C
atom 6.1656429847415186 0.3288930468056431 24.2414043300000017 C
atom 1.5796156714425893 0.5823113448985762 24.1711526699999979 C
atom 17.2326709415990464 4.2073487874382272 24.2414043300000017 C
atom 12.6466436283001151 4.4607670855311605 24.1711526699999979 C
atom 7.0706132624153124 3.6017667080958558 24.3681627600000006 H
atom 18.1376412192728402 7.4802224487284406 24.3681627600000006 H
atom 10.9016276549793147 1.5589065003898610 24.4735402500000028 H
atom 2.8572556118368428 5.4373622410224449 24.4735402500000028 H
atom 16.4617676383317217 3.5301704151237785 24.6125163600000008 H
atom 8.4173955951892516 7.4086261557563624 24.6125163600000008 H
atom 1.5314129687834588 1.6268570449657438 24.4857579300000019 H
atom 12.5984409256409862 5.5053127855983277 24.4857579300000019 H
atom 11.6231399848244301 3.5865631615925762 24.5636456400000007 C
atom 3.5787679416819587 7.4650189022251601 24.5636456400000007 C
atom 6.1035954898350591 1.6905412882269308 24.5728088999999983 C
atom 17.1704323326925881 5.5689970288595152 24.5728088999999983 C
atom 4.0193065901728486 1.8759314726291685 25.1149684500000028 H
atom 15.0863345470303774 5.7543872132617535 25.1149684500000028 H
atom 18.1555813163047155 1.1592704208750795 25.0890058800000020 H
atom 10.1112092731622436 5.0377261615076634 25.0890058800000020 H
atom 9.6587132567675571 3.3615351595210736 25.4127744000000000 H
atom 20.7257412136250849 7.2399909001536580 25.4127744000000000 H
atom 4.9835892780375648 3.3264739196257551 25.4066655600000004 H
atom 16.0506172348950926 7.2049296602583395 25.4066655600000004 H
atom 18.5410810402515054 0.1931470958835027 25.4433186000000013 C
atom 10.4967089971090335 4.0716028365160870 25.4433186000000013 C
atom 5.0024964123329241 2.2283279612230453 25.4555362800000005 C
atom 16.0695243691904501 6.1067837018556297 25.4555362800000005 C
atom 5.1319817322400123 1.7979745122424535 26.9124946200000004 C
atom 14.9000594426675157 1.8746127976773532 26.9124946200000004 I
atom 16.1992310296566764 5.6765078219898504 26.9124946200000004 C
atom 6.8555664932884968 5.7527582618506869 26.9124946200000004 I
atom 9.4035878228736394 0.2379044751304027 26.9231850900000005 I
atom 18.9644289043301946 0.4090219424071123 26.8926408899999991 C
atom 20.4708371202903052 4.1164377848778004 26.9231850900000005 I
atom 10.9200266346285861 4.2874001139248836 26.8926408899999991 C
atom 5.1019684956534013 0.7071976197469454 27.0224537399999996 H
atom 16.1692177930700680 4.5857309294943427 27.0224537399999996 H
atom 0.6230508880242891 1.1844803831891912 26.9827462800000006 H
atom 11.6900788448818158 5.0629361238217756 26.9827462800000006 H
atom 12.3976734330457656 2.7683641385487259 27.0682700400000016 H
atom 4.3533013899032946 6.6468198791813107 27.0682700400000016 H
atom 7.2446020304133167 1.7608189062471933 27.0896509800000018 H
atom 18.3114993263891215 5.6394297851094031 27.0896509800000018 H
atom 10.8294296862039872 2.2255354730897894 27.3782936700000015 H
atom 6.5611332452860021 3.2933519076007527 27.3538583099999997 H
atom 2.7850576430615148 6.1039912137223737 27.3782936700000015 H
atom 17.6282216552618038 7.1719627864629629 27.3538583099999997 H
atom 4.3304108526984102 2.2314307258155508 27.5233786199999990 H
atom 15.3974690361150746 6.1099640355629488 27.5233786199999990 H
atom 18.1059540564493311 0.7003715376434321 27.5111609399999999 H
atom 10.0615820133068610 4.5788272782760160 27.5111609399999999 H
atom 11.4833983671011701 3.0366757066856884 27.4897799999999997 N
atom 3.4390263239586987 6.9151314473182728 27.4897799999999997 N
atom 6.4273358010413455 2.2653284289886799 27.4943616300000002 N
atom 17.4944242110171473 6.1439393078508893 27.4943616300000002 N
atom 11.6607694216767346 3.1863065291592934 28.4992658100000007 H
atom 3.6164276050933992 7.0648398389066909 28.4992658100000007 H
atom 6.4496919042091321 2.0740429918606811 28.5130107000000024 H
atom 17.5169109750666614 5.9524987324932646 28.5130107000000024 H
atom 15.0707768037384842 2.0012831621664136 30.1608702900000019 Pb
atom 7.0228223678218979 5.8774118293546183 30.1608702900000019 Pb
atom 12.6343564523833827 0.1093724518858389 30.1028363100000007 I
atom 2.0710913128351645 0.7376047127535048 30.1700335500000030 I
atom 8.9526405305560086 3.2582906677054337 30.1501798200000017 I
atom 17.4993965207707518 3.9006405074690025 30.2219586900000010 I
atom 4.5905255994345620 3.9848029970407297 30.1028363100000007 I
atom 13.1387530648109685 4.6162155916157150 30.1700335500000030 I
atom 20.0204036794780045 7.1381426524046461 30.1501798200000017 I
atom 6.4301132518703268 0.0188492948994744 30.2204314800000020 I
atom 9.5314972535033711 0.0590300963724279 30.1608702900000019 Pb
atom 20.6020257154791757 3.9376409752346380 30.1608702900000019 Pb
atom 4.5636943697409347 1.9291438853906475 31.8072026700000023 H
atom 15.6307827797167356 5.8077547642528575 31.8072026700000023 H
atom 18.4672453183593746 0.8163373642883464 31.8194203500000015 H
atom 10.4228732752169009 4.6947931049209304 31.8194203500000015 H
atom 4.5839277469947612 1.7373154644589599 32.8243245300000055 N
atom 15.6511770444114244 5.6158487742063565 32.8243245300000055 N
atom 18.6417203989994036 0.9673644308285791 32.8304333700000015 N
atom 10.5973181292977952 4.8457426023463510 32.8304333700000015 N
atom 12.0170312664685000 3.3021172175745823 32.8136340599999983 H
atom 3.9726894498851650 7.1806505273219798 32.8136340599999983 H
atom 6.6804314487569876 1.7730748263875924 32.8014163799999992 H
atom 17.7476807461736534 5.6516081361349890 32.8014163799999992 H
atom 4.4515383085135563 0.7089817093876364 32.9648278499999989 H
atom 19.2959201751009033 1.7781168188504146 32.9434469100000058 H
atom 15.5185964919302233 4.5875150191350338 32.9648278499999989 H
atom 11.2515179053992931 5.6564949903681860 32.9434469100000058 H
atom 3.7650614352357312 2.2406614504782567 33.2275079700000049 H
atom 14.8322502795341205 6.1190396219960288 33.2275079700000049 H
atom 17.7259875914418643 1.2368395356877313 33.2488889099999980 H
atom 9.6816155482993942 5.1152952763203157 33.2488889099999980 H
atom 10.3870874105493822 2.8201803072435774 33.3374670900000041 H
atom 21.4541455939660466 6.6987136169909745 33.3374670900000041 H
atom 5.9068417595654470 3.2969976559969472 33.2977596300000016 H
atom 16.9740608304229745 7.1754533966295311 33.2977596300000016 H
atom 11.1573102628886538 3.5951733333367804 33.4290996900000010 C
atom 1.6125930280657623 3.7626450522172954 33.4000826999999987 I
atom 3.1129684463053193 7.4737066430841770 33.4290996900000010 C
atom 12.6792689834824284 7.6411783619646920 33.4000826999999987 I
atom 15.2295134733041202 2.1266348517036588 33.4092459599999998 I
atom 7.1848596364842363 6.0048578849918046 33.4092459599999998 I
atom 5.8772712040971111 2.2063759017310649 33.4107731699999988 C
atom 16.9444902749546387 6.0848316423636488 33.4092459599999998 C
atom 6.0052783104772969 1.7766430056689742 34.8677315100000058 C
atom 17.0725978156574136 5.6548660389571213 34.8662042999999997 C
atom 11.5784456839995791 3.8117463018937041 34.8799491900000049 C
atom 3.5340736408571067 7.6902020425262876 34.8799491900000049 C
atom 6.0243463322135185 0.6784194781514516 34.9166022300000023 H
atom 17.0918569513936376 4.5566425114395983 34.9150750199999962 H
atom 1.3495743549243897 0.6432806691413204 34.9104933899999992 H
atom 12.4166023117819186 4.5217364097739043 34.9104933899999992 H
atom 11.9645187499463681 2.8456229769021273 35.2342619100000007 H
atom 3.9201467068038967 6.7240787175347112 35.2342619100000007 H
atom 6.9889907761642736 2.1284189413443499 35.2067721300000045 H
atom 18.0561191673443915 6.0066419746324966 35.2067721300000045 H
atom 4.9059489948246524 2.3135764184021492 35.7535133100000024 C
atom 15.9731778203273578 6.1915667443458577 35.7535133100000024 C
atom 18.4975529327170030 0.4173994068068787 35.7626765699999964 C
atom 10.4531808895745346 4.2958551474394628 35.7626765699999964 C
atom 9.4782924033171145 2.3771830925485236 35.8405642800000024 H
atom 20.5448074712929198 6.2557939714107329 35.8405642800000024 H
atom 13.6570443657688525 0.4738697223904891 35.7122786400000010 H
atom 5.6127932288629294 4.3526357394823245 35.7138058500000000 H
atom 19.2195879060890249 2.4444355150910928 35.8543091700000005 H
atom 11.1747634271831018 6.3232015321829271 35.8527819600000015 H
atom 3.9389916753626739 0.4025061367628496 35.9581594499999966 H
atom 15.0065422757471048 4.2803413244769333 35.9566322400000047 H
atom 9.4316683485074773 3.4208755323527522 36.1597511699999998 C
atom 4.8450072400902737 3.6741386922160602 36.0894995100000031 C
atom 20.4985051913650018 7.2993312729853361 36.1597511699999998 C
atom 15.9120751781521168 7.5522065872745809 36.0879723000000041 C
atom 3.9021933059289391 1.4591526187407908 36.2284756199999975 C
atom 14.9699350203133701 5.3369878064548741 36.2269484099999985 C
atom 18.4314776044564574 1.7569404505065607 36.1658600100000029 C
atom 10.3866531255505379 5.6357064675983954 36.1643328000000039 C
atom 19.4392861353495690 7.7538087166726628 36.9432098999999994 C
atom 11.8547639405495815 0.2814207485403003 36.8867031300000008 C
atom 8.3721577441694528 3.8755856833845166 36.9432098999999994 C
atom 3.8100301413210707 4.1604194729765736 36.8882303399999998 C
atom 2.8650037641919703 1.9461315215346182 37.0256792400000023 C
atom 13.9328761394581253 5.8238115710190757 37.0256792400000023 C
atom 17.3683270420968654 2.2135898294086411 36.9477915300000035 C
atom 9.3231807883092159 6.0925109847301009 36.9462643199999974 C
atom 11.8116402624490995 1.3404718730774337 37.1417471999999975 H
atom 3.7671278037797244 5.2195481666285195 37.1432744100000036 H
atom 7.5815141873110026 3.1904176922443637 37.2486518999999987 H
atom 18.6484816910502573 7.0687182946473230 37.2486518999999987 H
atom 2.0860053904084066 1.2722110520423002 37.3815191699999971 H
atom 13.1538173125562885 5.1497359632971325 37.3815191699999971 H
atom 17.3211920236527135 3.2603850338053761 37.2471246899999997 H
atom 9.2759755621016122 7.1396164655860863 37.2455974800000007 H
atom 16.3573842989008682 1.3358177261886748 37.3372300800000048 C
atom 8.3124291591132220 5.2147388815101356 37.3357028699999987 C
atom 2.8159364908986992 3.2994022985561395 37.3570838099999989 C
atom 13.8835875256057193 7.1770047789257845 37.3570838099999989 C
atom 15.5232242470822701 1.6934889145898115 37.9404780300000013 H
atom 7.4779473324128967 5.5725652081408974 37.9389508200000023 H
atom 2.0040136887781030 3.6842226771417046 37.9756038599999997 H
atom 13.0721269138937508 7.5610494663632233 37.9756038599999997 H
atom 17.1901495684265235 0.1054939961452063 41.3079760800000031 S
atom 11.7464145589486559 0.5619882368176615 41.3079760800000031 S
atom 6.3036244022020034 1.0174740789975523 41.3095032900000021 S
atom 0.8609356424015465 1.4742010270144452 41.3079760800000031 S
atom 14.5285704063645422 1.9306176985720878 41.3079760800000031 S
atom 9.0857909668866714 2.3871119392445430 41.3095032900000021 S
atom 3.6427697149357052 2.8429856269984972 41.3079760800000031 S
atom 17.3101529117804240 3.2992471603265141 41.3079760800000031 S
atom 11.8671823583025571 3.7557414009989696 41.3095032900000021 S
atom 6.4243122391472758 4.2120029343269865 41.3095032900000021 S
atom 20.0929123277554460 4.6679541911957534 41.3079760800000031 S
atom 14.6490066761915365 5.1249914156718965 41.3079760800000031 S
atom 9.2058849899179833 5.5810978107702889 41.3095032900000021 S
atom 3.7628432660530566 6.0364285147205541 41.3079760800000031 S
atom 17.4309109564891465 6.4934657391966981 41.3079760800000031 S
atom 11.9875279484521418 6.9498824107543404 41.3095032900000021 S
atom 6.5452711525011757 7.4057560985082942 41.3095032900000021 S
atom 15.3730352813026148 0.2712591944998430 42.8810023799999982 W
atom 9.9293109890935281 0.7287618336648627 42.8810023799999982 W
atom 4.4865822480887569 1.1858766272558190 42.8810023799999982 W
atom 18.1558356411055577 1.6410521929764590 42.8810023799999982 W
atom 12.7120197065954521 2.0968483116156005 42.8810023799999982 W
atom 7.2685157923218986 2.5529547067139924 42.8810023799999982 W
atom 1.8253638794892075 3.0089835326975716 42.8810023799999982 W
atom 15.4931205123123554 3.4671842938959050 42.8810023799999982 W
atom 10.0505624133936244 3.9237561036831727 42.8810023799999982 W
atom 4.6079828799373264 4.3783111164853121 42.8810023799999982 W
atom 18.2753056236637725 4.8344175115837036 42.8810023799999982 W
atom 12.8321839373902176 5.2905239066820959 42.8810023799999982 W
atom 7.3886702684714853 5.7470957164693637 42.8825295899999972 W
atom 21.0569397901763615 6.2051413394380717 42.8810023799999982 W
atom 15.6146829942253937 6.6610150271920263 42.8810023799999982 W
atom 10.1713594766830564 7.1161130237978538 42.8825295899999972 W
atom 4.7276342218503640 7.5721418497814330 42.8810023799999982 W
atom 17.1902100215447966 0.1056491343748316 44.4540286800000004 S
atom 11.7469674290346955 0.5614452530139729 44.4540286800000004 S
atom 6.3034537601159641 1.0180170628012406 44.4540286800000004 S
atom 0.8603320738424093 1.4741234578996325 44.4525014700000014 S
atom 14.5292441826871279 1.9303849912276498 44.4525014700000014 S
atom 9.0857607403275331 2.3870343701297303 44.4540286800000004 S
atom 3.6420657120539794 2.8431407652281226 44.4540286800000004 S
atom 17.3105049132212869 3.2991695912117014 44.4525014700000014 S
atom 11.8673734723025568 3.7557414009989696 44.4540286800000004 S
atom 6.4240606720290012 4.2118477960973610 44.4540286800000004 S
atom 20.0924296654328600 4.6681868985401911 44.4525014700000014 S
atom 14.6495195650732626 5.1248362774422720 44.4540286800000004 S
atom 9.2057338571222971 5.5807099651962258 44.4540286800000004 S
atom 3.7623508490852915 6.0371266367538681 44.4540286800000004 S
atom 17.4310718439300132 6.4933881700818858 44.4525014700000014 S
atom 11.9881714982155945 6.9495721342950905 44.4540286800000004 S
atom 6.5444062621785877 7.4059888058527328 44.4540286800000004 S
