# 
# This is the geometry file that corresponds to the current relaxation step.
# If you do not want this file to be written, set the "write_restart_geometry" flag to .false.
#  aims_uuid : 66389345-5A31-495F-A920-335712A8D017                                
# 
lattice_vector      3.71955069      0.00000000      0.00000000
lattice_vector     -1.85977534      3.22122539      0.00000000
lattice_vector      0.00000000      0.00000000    101.73673113
atom_frac       0.00052956      0.66727074      0.50095063 Se
atom_frac       0.33375562      0.33375961      0.47493831 Se
atom_frac       0.66709616      0.00035099      0.48794568 Pt
# 
# What follows is the current estimated Hessian matrix constructed by the BFGS algorithm.
# This is NOT the true Hessian matrix of the system.
# If you do not want this information here, switch it off using the "hessian_to_restart_geometry" keyword.
# 
trust_radius             0.0270005179
hessian_block                1       1           1.047063          -0.711929          -4.263035          -0.711929           1.230869           3.548411          -4.263035           3.548411         961.838289
hessian_block                1       2           0.119583          -0.072019          -0.061108          -0.105430           0.430391           3.498253           2.140297          -8.434966        -152.171953
hessian_block                1       3          -0.922639           0.661944           4.324143           0.695355          -1.417253          -7.046665           2.122738           4.886555        -630.513399
hessian_block                2       2           1.091001          -0.609957           2.620873          -0.609957           1.170546          -8.719268           2.620873          -8.719268        1183.205321
hessian_block                2       3          -0.966577           0.593383          -4.761170           0.559973          -1.356930          17.154235          -2.559765           5.221015        -851.880431
hessian_block                3       3           2.133223          -1.377331           0.437027          -1.377331           3.018190         -10.107570           0.437027         -10.107570        1661.546767
hessian_block_lv             1       1          16.115638           0.163545           0.000000           0.163545           0.012041           0.000000           0.000000           0.000000           0.000000
hessian_block_lv_atom        1       1          -0.046039          -0.025112           0.000000           0.108602           0.052445           0.000000          57.722167           1.865381           0.000000
hessian_block_lv_atom        1       2          -0.084488          -0.008397           0.000000           0.198298           0.043757           0.000000         -58.524174          -2.789945           0.000000
hessian_block_lv_atom        1       3           0.130526           0.033509           0.000000          -0.306900          -0.096202           0.000000           0.802007           0.924565           0.000000
