# 
# This is the geometry file that corresponds to the current relaxation step.
# If you do not want this file to be written, set the "write_restart_geometry" flag to .false.
#  aims_uuid : 6644893D-55C0-46F7-A66B-71300BD423DC                                
# 
lattice_vector      5.84834631      0.00000000      0.00000000
lattice_vector      0.00000000      5.95439305      0.00000000
lattice_vector      0.00000000      0.00000000      7.49885581
atom_frac       0.50214875      0.00222134      0.00222471 Pd
atom_frac       0.00214420      0.00219783      0.50212326 Pd
atom_frac       0.00225549      0.50218710      0.00217037 Pd
atom_frac       0.50220985      0.50222203      0.50216394 Pd
atom_frac       0.61431293      0.12052284      0.40533650 Se
atom_frac       0.88988750      0.88379694      0.90541935 Se
atom_frac       0.11443385      0.38383858      0.59894198 Se
atom_frac       0.39008152      0.62052793      0.09900908 Se
atom_frac       0.38997854      0.88385857      0.59896003 Se
atom_frac       0.11432600      0.12045562      0.09902023 Se
atom_frac       0.88999898      0.62050216      0.40534331 Se
atom_frac       0.61436125      0.38380787      0.90542609 Se
# 
# What follows is the current estimated Hessian matrix constructed by the BFGS algorithm.
# This is NOT the true Hessian matrix of the system.
# If you do not want this information here, switch it off using the "hessian_to_restart_geometry" keyword.
# 
trust_radius             0.0488401088
hessian_block                1       1           6.013753           0.014355          -2.134785           0.014355           6.439943          -1.280263          -2.134785          -1.280263           4.728227
hessian_block                1       2          -0.115652           0.494643          -0.121089           0.212330           0.333178          -0.340188          -0.182327           0.199839          -0.074245
hessian_block                1       3          -0.171276           0.594021          -0.209499          -0.003170          -0.109855           0.090188          -0.179903           0.021330          -0.093865
hessian_block                1       4           0.543276           0.138736          -0.030356           0.112653          -0.365486          -0.206087          -0.010366           0.123513          -0.019014
hessian_block                1       5           0.063899          -0.440090          -0.076478          -0.401790           0.312591           0.195851          -0.190134           0.036417           0.263872
hessian_block                1       6          -1.756933          -0.002303           0.770032           0.526212          -0.624288          -0.040754           1.588125          -0.627409          -0.427743
hessian_block                1       7          -0.358943           0.249156           0.052295           0.165917           0.043563           0.172075           0.038297           0.210255           0.099073
hessian_block                1       8          -0.279924          -0.366899           0.232523          -0.324360          -1.930944           0.845026          -0.028315           0.898925          -0.497710
hessian_block                1       9          -0.213910           0.092456           0.159581          -0.360058          -0.463446           0.026382          -0.078220           0.036913           0.075368
hessian_block                1      10          -2.363823           0.788980           0.931118          -0.100177          -0.158293          -0.529843           0.527394          -0.098826          -0.651363
hessian_block                1      11           0.083726          -0.533902           0.007568           0.281573           0.140852           0.157687           0.153635           0.085024           0.263021
hessian_block                1      12           0.121718          -1.029153           0.419089          -0.123486          -1.970791           0.909927           0.496599           0.394281          -0.563754
hessian_block                2       2           6.113481           0.491777           2.602560           0.491777           7.315577           2.220086           2.602560           2.220086           5.433876
hessian_block                2       3           0.986592           1.019476           0.858522          -0.464612          -0.512931          -0.394613           0.140051           0.060828           0.277374
hessian_block                2       4           0.161759           0.585153           0.138433          -0.400455           0.576309           0.377738           0.216705           0.620000           0.339831
hessian_block                2       5          -2.129983          -0.039071          -1.186037           0.573301          -0.489163           0.187817          -0.817609          -0.289338          -0.776343
hessian_block                2       6          -0.551006          -0.164061          -0.184654          -0.528212          -1.015460          -0.746884          -0.826717          -0.925738          -1.089769
hessian_block                2       7          -0.041042          -0.694852          -0.202727          -0.582647          -1.715155          -0.892635          -0.201356          -1.186188          -0.714184
hessian_block                2       8          -0.232152          -0.621281          -0.414032           0.057147          -0.405272          -0.338611           0.119946          -0.041962           0.227753
hessian_block                2       9          -1.967902           0.382672          -0.927700           0.471884          -0.900038          -0.045138          -0.997977           0.039958          -0.568124
hessian_block                2      10           0.590195           0.040699           0.395903           0.575534           1.143834           1.193223           0.628705           1.037341           1.002124
hessian_block                2      11          -0.572187          -0.721942          -0.427087          -0.566439          -3.179698          -1.882683          -0.282172          -1.038320          -0.700417
hessian_block                2      12          -0.676189          -0.490900          -0.470855          -0.121919           0.495841           0.121860          -0.461045          -0.156482          -0.256013
hessian_block                3       3           6.741428          -0.574407           2.328967          -0.574407           6.359251          -1.311117           2.328967          -1.311117           4.759259
hessian_block                3       4           0.278515          -0.279411          -0.011445          -0.200903           0.140317          -0.072804           0.408734          -0.187486           0.148852
hessian_block                3       5          -0.649215           0.191311          -0.252558          -0.046373           0.345972           0.214277          -0.075684           0.143597           0.164622
hessian_block                3       6          -0.775856           0.556813          -0.450218          -0.328792          -1.716951           0.738264          -1.474636           1.209024          -1.042833
hessian_block                3       7           0.065126           0.098181           0.078380           0.016444          -0.078868           0.116832          -0.199487           0.074178          -0.046535
hessian_block                3       8          -2.160187          -0.077688          -1.001222          -0.714595          -0.347807          -0.449939          -0.737165          -0.299786          -0.388707
hessian_block                3       9          -0.215915           0.340104           0.115978          -0.188845          -0.108039          -0.037931          -0.333170           0.264413           0.035068
hessian_block                3      10           0.579031           0.323028           0.189845           1.580478          -2.293962           1.221104           0.754921           0.437721          -0.169717
hessian_block                3      11          -0.466942           0.120017          -0.070345          -0.627123           0.228634          -0.290188          -0.028058           0.115524           0.145854
hessian_block                3      12          -2.645389          -0.230167          -0.887532          -0.529382          -0.258737          -0.210661          -1.293448          -0.141643          -0.687511
hessian_block                4       4           6.022858           0.176125          -1.985443           0.176125           6.850808           1.513504          -1.985443           1.513504           4.934553
hessian_block                4       5          -0.396880           0.591090           0.070556           0.142806          -2.190540          -0.982388           0.016433          -1.290085          -0.690505
hessian_block                4       6          -0.114324           0.439052          -0.017133          -0.239659          -0.336535          -0.423930           0.230339          -0.145116          -0.436464
hessian_block                4       7          -2.011936          -0.860332           0.795382          -0.146840          -0.158841           0.248303           0.694039          -0.161052          -0.583666
hessian_block                4       8          -0.542773          -0.221403          -0.192228           0.065449          -0.508657          -0.186513          -0.186295          -0.123339           0.094105
hessian_block                4       9          -0.380182           0.599420           0.169941           0.058992          -2.198014          -1.116609           0.026039          -0.854215          -0.528044
hessian_block                4      10          -0.325096          -0.407534           0.038875          -0.153862           0.684560           0.562995           0.085107           0.398303           0.516887
hessian_block                4      11          -1.830615          -0.099478           0.739276          -0.814578          -1.258804          -0.303958           0.992153           0.093923          -0.587930
hessian_block                4      12           0.161308           0.271764          -0.234297           0.467092           0.411904           0.132571           0.030997           0.469231          -0.086740
hessian_block                5       5           5.533923          -0.366068          -0.970662          -0.366068           6.382746          -1.096196          -0.970662          -1.096196           7.690375
hessian_block                5       6           0.104245          -0.535068          -0.264426           0.148757          -0.540237           0.553507           0.515154          -1.101826           0.719130
hessian_block                5       7          -0.271465           1.118588          -0.072621          -0.856777           0.051889           0.349272           0.251921           0.686072          -1.019726
hessian_block                5       8          -0.108544          -0.095370           0.312675           0.576847          -0.033221          -0.363857           0.219376           0.729381          -0.924729
hessian_block                5       9          -1.562288          -0.464745           1.617601          -0.446400          -2.017047           2.252224           1.614950           2.438982          -3.427572
hessian_block                5      10          -0.096318           0.720925           0.342914          -0.036638           0.514756          -0.605931          -0.129530           0.242353          -0.960585
hessian_block                5      11           0.395636          -1.008568           0.227893           1.122714          -0.068118           0.095410          -0.353194          -0.252797           1.237096
hessian_block                5      12           0.682902           0.362362          -0.126378          -0.445677          -0.622603           0.214981           0.296504          -1.261528           0.826231
hessian_block                6       6           5.743271           0.631097           2.350695           0.631097           6.172621           2.435982           2.350695           2.435982          10.741232
hessian_block                6       7           0.009668          -0.291571          -0.204257           0.453160           0.284908           0.759312          -0.154627          -0.132837          -0.628566
hessian_block                6       8           0.289629           0.651437           0.732180           0.077602           0.205052           0.640382          -0.297198          -0.475158          -1.649992
hessian_block                6       9           0.258753           0.281982          -0.015481           0.427219           1.024942           0.778807          -0.123738          -0.324593          -1.027626
hessian_block                6      10          -2.057022          -1.539778          -3.655169          -1.387798          -2.495188          -3.923822          -2.309795          -2.757297          -5.396804
hessian_block                6      11           0.293420           0.625430           0.310455          -0.639987           0.599247           0.650269          -0.332570           0.332934           0.764903
hessian_block                6      12           0.122069           0.063098           0.449311           0.144275           0.088914           0.250136           1.013633           0.840769           2.576400
hessian_block                7       7           5.393100           0.419620           1.267349           0.419620           6.115955          -1.456108           1.267349          -1.456108           7.830055
hessian_block                7       8          -0.072119          -0.237704           0.147831           0.154315          -0.364037           0.734653           0.327803          -0.555576           1.214933
hessian_block                7       9           0.334730           0.588425          -0.090871          -0.648174          -0.394820          -0.531504           0.471072          -0.447000           1.299561
hessian_block                7      10           0.209654          -0.560001           0.051979           0.350009          -0.472978          -0.235963          -0.291942          -0.832333           0.550133
hessian_block                7      11          -1.841988           0.572536          -1.926401           0.670001          -2.245623           2.672546          -1.607156           2.214216          -3.527529
hessian_block                7      12           0.151126           0.167868           0.121331          -0.564941           0.581030          -0.674051          -0.613576           0.323643          -1.371682
hessian_block                8       8           5.756654          -0.016529          -1.117793          -0.016529           5.760415           1.284296          -1.117793           1.284296           7.586103
hessian_block                8       9           0.616215          -0.580373          -0.145568           0.530214           0.146102          -0.444455           0.043877           0.349868           1.232550
hessian_block                8      10          -0.429408          -0.192931           0.602229          -0.985322          -0.468617           0.705090          -0.641149          -0.271937           1.190995
hessian_block                8      11           0.348890          -0.277505          -0.343506           0.647979           1.176869           0.440739           0.021589          -0.505242          -1.063342
hessian_block                8      12          -1.620368           1.174934           1.586482           0.792565          -1.582856          -2.118151           1.875753          -1.738126          -3.920096
hessian_block                9       9           5.250520          -0.378925          -0.704825          -0.378925           6.538205          -1.658880          -0.704825          -1.658880           7.678946
hessian_block                9      10          -0.163621           0.020267           0.145723          -0.347085          -0.476250           0.218448          -0.358435          -0.482937           0.792193
hessian_block                9      11          -0.106431           0.943274          -0.408281          -0.721689           0.611935           0.497933           0.229105           0.239154          -1.118369
hessian_block                9      12          -0.284058          -0.429446           0.344551           0.207758          -0.116505          -0.561829          -0.049329           1.020888          -1.342087
hessian_block               10      10           6.071024           1.029648           2.065256           1.029648           7.439807           2.779683           2.065256           2.779683           8.736582
hessian_block               10      11          -0.223175          -0.388566           0.066307           0.191982          -1.440491          -0.387956           0.108115          -0.631206          -0.868118
hessian_block               10      12          -0.225531          -0.136221          -0.396839          -0.415285          -0.330158          -0.064117          -1.216792          -0.753779          -1.640466
hessian_block               11      11           5.527615           0.309351           1.019261           0.309351           7.835916          -1.235032           1.019261          -1.235032           7.691829
hessian_block               11      12          -0.042042           0.146220           0.079294           0.459354          -0.753697           0.581822           0.804859          -0.414763           0.864867
hessian_block               12      12           5.820365           0.129644          -0.884155           0.129644           5.704682           1.417512          -0.884155           1.417512           8.702718
hessian_block_lv             1       1          19.726300          -4.602189           3.234568          -4.602189          23.581144           2.502932           3.234568           2.502932           1.518411
hessian_block_lv_atom        1       1           0.717919          -0.143390           0.041746          -0.910817           0.598766          -0.158322          -0.503214           0.373536           0.032738
hessian_block_lv_atom        1       2          -1.128511           0.468378          -0.115419          -1.163955           1.028679          -0.019661          -0.660006           0.372551          -0.050738
hessian_block_lv_atom        1       3          -1.745994           0.771430          -0.231652           0.527039           0.082245          -0.008829          -0.986428           0.723503          -0.029702
hessian_block_lv_atom        1       4           0.062571           0.121413          -0.003243           0.273469           0.440201           0.103110          -0.130245           0.032550           0.004473
hessian_block_lv_atom        1       5           0.672577          -0.508075           0.278747          -0.985104           1.187167           0.228387          -1.209574          -2.613382          -1.262572
hessian_block_lv_atom        1       6           1.768073          -1.566504          -0.123254           1.328804          -1.608801          -0.108886           1.314770          -4.950346          -1.279709
hessian_block_lv_atom        1       7          -1.464006           0.021335           0.031566          -0.018488          -0.935650          -0.380568           1.538865           2.130974           1.313954
hessian_block_lv_atom        1       8           1.015927          -0.421506          -0.200809           0.266434          -0.433693           0.219575           0.554501           3.097442           1.316591
hessian_block_lv_atom        1       9           0.285160           0.275436          -0.168552           0.854503          -1.586854          -0.313177           1.534676           2.509298           1.336280
hessian_block_lv_atom        1      10          -2.367621           1.695869           0.190568          -1.675648           1.572259           0.160522          -0.488136           4.328844           1.219316
hessian_block_lv_atom        1      11           1.571870          -0.377419          -0.027249           1.035639          -0.118011           0.383424          -1.027299          -2.363637          -1.233454
hessian_block_lv_atom        1      12           0.612036          -0.336966           0.327550           0.468122          -0.226309          -0.105575           0.062086          -3.641332          -1.367178
