# 
# This is the geometry file that corresponds to the current relaxation step.
# If you do not want this file to be written, set the "write_restart_geometry" flag to .false.
#  aims_uuid : D8E53E67-A020-45F4-A709-004A7DE21982                                
# 
lattice_vector      5.83803870      0.00000000      0.00000000
lattice_vector      0.00000000      5.95051541      0.00000000
lattice_vector      0.00000000      0.00000000      7.51744752
atom_frac       0.50112886      0.00040199      0.00026111 Pd
atom_frac       0.00040132      0.00045816      0.50138068 Pd
atom_frac       0.00051260      0.50112929      0.00028864 Pd
atom_frac       0.50124313      0.50118596      0.50135332 Pd
atom_frac       0.61286347      0.11862208      0.40370977 Se
atom_frac       0.89027336      0.88373075      0.90432857 Se
atom_frac       0.11214020      0.38303821      0.59874760 Se
atom_frac       0.38942079      0.61937744      0.09788152 Se
atom_frac       0.38948361      0.88374478      0.59875342 Se
atom_frac       0.11213653      0.11869228      0.09790558 Se
atom_frac       0.89020672      0.61929442      0.40371966 Se
atom_frac       0.61287253      0.38300775      0.90435327 Se
# 
# What follows is the current estimated Hessian matrix constructed by the BFGS algorithm.
# This is NOT the true Hessian matrix of the system.
# If you do not want this information here, switch it off using the "hessian_to_restart_geometry" keyword.
# 
trust_radius             0.0122100272
hessian_block                1       1           6.345977          -1.001221          -2.608969          -1.001221           8.978589          -0.129239          -2.608969          -0.129239           5.182241
hessian_block                1       2          -1.045648           3.017802           1.014745          -0.588222           2.784583           0.828325          -0.553047           1.516785           0.531887
hessian_block                1       3          -1.499874           4.305234           1.465574           0.044093          -0.494693          -0.071674          -1.074898           2.452972           0.924603
hessian_block                1       4           0.509133           0.255366          -0.056013           0.379963          -0.871439          -0.334912           0.031699           0.170125           0.038859
hessian_block                1       5           0.565244          -2.090337          -0.834023          -1.698684           3.437295           1.479049          -0.028098          -0.497358          -0.034495
hessian_block                1       6           0.057932          -4.433232          -1.012481           2.158267          -4.805656          -1.843833           4.339786          -8.122363          -3.425511
hessian_block                1       7          -1.159652           2.224120           0.948211           0.547361          -0.814088          -0.246230          -0.011526           0.167057           0.029357
hessian_block                1       8           0.442378          -2.295348          -0.336799          -0.018598          -2.891003           0.396123          -1.009796           3.377380           0.499498
hessian_block                1       9          -0.102739          -0.054629           0.168669           0.813059          -3.359807          -1.212075          -0.261126           0.371559           0.181255
hessian_block                1      10          -4.213132           5.638439           2.824852          -1.613393           4.096145           1.318980          -1.365965           5.144925           1.494653
hessian_block                1      11           1.233791          -3.347598          -1.245016           0.536075          -1.137484          -0.502841           0.295754          -0.395950          -0.027910
hessian_block                1      12           0.432501          -2.218596          -0.328749           0.441297          -3.275417           0.318328           2.246187          -4.055893          -2.292573
hessian_block                2       2           8.505499           2.660844           3.684043           2.660844           9.049667           2.924820           3.684043           2.924820           5.687065
hessian_block                2       3           4.432186           4.022664           2.315107          -0.709055          -0.557569          -0.316836           2.400816           2.102471           1.283939
hessian_block                2       4           0.197688           0.524049           0.090471          -1.010405          -0.174080          -0.151398           0.192983           0.473772           0.207576
hessian_block                2       5          -3.612071          -1.232065          -1.702552           3.668390           2.586104           1.901368          -1.297146          -0.707627          -0.944306
hessian_block                2       6          -4.855828          -4.349155          -2.478143          -4.496035          -4.658901          -2.650826          -7.782219          -7.226475          -4.351479
hessian_block                2       7           1.919069           1.216315           0.824129          -1.503295          -2.748062          -1.490519          -0.093340          -0.816887          -0.379308
hessian_block                2       8          -1.855246          -1.902554          -1.068916          -0.781801          -1.061739          -0.594929           2.537396           2.380735           1.528231
hessian_block                2       9          -2.094923           0.245959          -1.034819          -2.338841          -3.619981          -1.472931          -0.585888           0.615883          -0.170073
hessian_block                2      10           5.144001           4.245723           2.640620           4.409619           4.357599           2.730422           5.455804           5.333041           3.187489
hessian_block                2      11          -3.345781          -3.405165          -1.860524          -1.447649          -3.431861          -1.709850          -0.757431          -1.517978          -0.930923
hessian_block                2      12          -1.823034          -1.438393          -0.856367          -1.469573          -0.878735          -0.686106          -4.769759          -4.390080          -2.548234
hessian_block                3       3          11.628410          -0.853837           5.567398          -0.853837           6.241280          -1.496930           5.567398          -1.496930           6.820055
hessian_block                3       4           0.268140          -0.218080          -0.069825          -1.200225           0.339797          -0.634466           0.330234          -0.099886           0.142277
hessian_block                3       5          -2.705159           0.238589          -1.651583           4.550329          -0.120775           3.094758          -0.745702           0.169170          -0.330052
hessian_block                3       6          -7.094175           1.139250          -4.390188          -6.053045          -1.283150          -2.957281         -11.524411           1.770964          -7.349929
hessian_block                3       7           2.958748          -0.186179           1.965835          -1.417336           0.134152          -0.817275           0.109772          -0.092101           0.090889
hessian_block                3       8          -4.401488          -0.102479          -2.246604          -1.859400          -0.338319          -1.233976           2.839892          -0.622870           1.828787
hessian_block                3       9          -0.405464           0.359722           0.069159          -4.316625           0.247443          -2.649758           0.365176           0.112211           0.435826
hessian_block                3      10           7.195303          -0.105799           4.298586           6.969462          -2.493059           4.743671           7.677508           0.079259           4.234012
hessian_block                3      11          -4.542716           0.517896          -2.706422          -1.599573          -0.039421          -1.071961          -0.737792           0.177455          -0.389222
hessian_block                3      12          -4.267997          -0.124122          -2.162275          -2.547648           0.011336          -1.532227          -7.662756           0.391238          -4.589322
hessian_block                4       4           5.891360           0.084100          -1.989646           0.084100           6.821052           1.410628          -1.989646           1.410628           4.866510
hessian_block                4       5          -0.424697           1.097280           0.180213           0.194344          -2.722532          -0.840228          -0.014984          -1.135953          -0.662369
hessian_block                4       6          -0.069223           1.270353          -0.195011          -0.190239           0.648760          -0.466661           0.345023           1.583773          -0.483198
hessian_block                4       7          -1.936821          -1.229424           0.839434          -0.273925          -0.091500           0.170228           0.853556           0.058224          -0.458487
hessian_block                4       8          -0.186463           0.331503          -0.221219           0.100833          -0.202737          -0.117137          -0.161155          -0.499815           0.203186
hessian_block                4       9          -0.276715           0.613920           0.110551           0.069663          -1.669194          -1.196774           0.113919          -0.783793          -0.423598
hessian_block                4      10          -0.421490          -1.461487           0.128279          -0.313246          -0.544174           0.468000          -0.004412          -0.898388           0.505632
hessian_block                4      11          -1.883565           0.449724           0.672785          -0.599194          -0.537397          -0.028599           0.873721           0.184972          -0.570060
hessian_block                4      12          -0.101436           0.674698          -0.080301           0.366330           0.650466           0.056534           0.019346           1.201128          -0.264464
hessian_block                5       5           6.195936          -2.556193          -0.762596          -2.556193           9.963301          -1.818763          -0.762596          -1.818763           7.726757
hessian_block                5       6           3.092436          -5.607417           0.750312           2.778816          -5.511717           1.442638           4.788657          -9.972590           2.157873
hessian_block                5       7          -1.649640           3.448368          -0.540715          -0.133776          -0.918781           0.520338           0.122815           0.597925          -1.010811
hessian_block                5       8           1.049039          -2.051010           0.795595           0.932290          -1.337710          -0.219028          -1.325620           3.613038          -1.444883
hessian_block                5       9          -1.290123          -0.435739           1.722756           1.513894          -5.335955           2.945321           1.300291           2.796640          -3.484384
hessian_block                5      10          -3.079400           6.307871          -0.672851          -2.397734           5.630513          -1.392651          -3.034032           6.510885          -1.912413
hessian_block                5      11           2.346767          -4.314814           0.893425           1.280554          -1.870733           0.203835          -0.175162          -0.971209           1.257046
hessian_block                5      12           1.077577          -1.505445          -0.099995           0.568681          -2.151985           0.490081           3.093593          -6.390873           1.783902
hessian_block                6       6          12.783880           7.500011          14.505098           7.500011          12.587944          13.978952          14.505098          13.978952          30.152586
hessian_block                6       7          -3.340769          -3.466488          -6.059877           1.941414           1.797498           3.510370          -0.180112          -0.409790          -0.910597
hessian_block                6       8           2.734733           3.015629           4.818014           1.804911           1.691759           3.059216          -4.332231          -4.477181          -8.293923
hessian_block                6       9           0.173751           0.286463           0.199809           5.095724           5.512642           8.796897          -0.700931          -1.053877          -2.146923
hessian_block                6      10          -9.744785          -8.934879         -16.367965          -8.322110          -8.751996         -14.973147         -10.873175         -10.794731         -18.946044
hessian_block                6      11           4.986555           5.073813           8.492466           1.585297           2.166690           3.226318           0.745938           1.315170           2.308479
hessian_block                6      12           2.841406           2.327688           4.245618           2.374954           2.253151           4.368084           8.160923           7.917419          14.390530
hessian_block                7       7           6.825858          -0.192380           1.267219          -0.192380           6.187856          -1.237011           1.267219          -1.237011           7.430790
hessian_block                7       8          -1.438058           0.620699          -0.329923          -0.693351           0.150457           0.581101           2.296444          -1.385429           1.049694
hessian_block                7       9           0.323438           0.594562          -0.177829          -2.796003           0.581315          -0.582165           0.766929          -0.419853           1.037393
hessian_block                7      10           3.883315          -2.263674           0.217457           3.590472          -2.131745           0.324447           3.829333          -2.766157           0.810414
hessian_block                7      11          -3.916451           1.501871          -1.978120          -0.413042          -1.366858           1.990650          -2.054024           2.319044          -3.397902
hessian_block                7      12          -0.903126           0.578477           0.200033          -1.502407           0.866779          -0.581451          -4.082916           1.842494          -1.189568
hessian_block                8       8           5.653343           0.545216          -2.672305           0.545216           5.904170           0.355107          -2.672305           0.355107           9.737752
hessian_block                8       9           0.284268          -0.436020          -0.237960           2.134741           1.309528          -3.186751          -0.450950           0.118093           1.440164
hessian_block                8      10          -2.921085          -1.912058           4.905707          -3.032326          -1.765670           4.749702          -3.531478          -1.909292           5.873817
hessian_block                8      11           2.143232           0.871892          -3.108542           0.856770           1.131817          -0.896324           0.763838          -0.342590          -1.549009
hessian_block                8      12           0.061257           1.446086           0.268169           1.879157          -0.943527          -3.407590           4.480749          -0.092687          -7.771448
hessian_block                9       9           5.023286          -0.434872          -0.751215          -0.434872           9.597433          -2.087255          -0.751215          -2.087255           7.538865
hessian_block                9      10          -0.143623          -5.019086           0.860118          -0.371676          -4.981894           1.117424          -0.542488          -6.132167           1.601356
hessian_block                9      11          -0.119220           3.977355          -0.842062          -0.571979           2.052470          -0.109649           0.422077           0.964281          -1.113029
hessian_block                9      12           0.193975           1.300992           0.185739           0.204288           1.313024          -0.677385           0.051289           5.813378          -1.794987
hessian_block               10      10          14.231609           8.231564          10.994777           8.231564          13.159694          10.376264          10.994777          10.376264          18.148538
hessian_block               10      11          -5.373839          -4.906119          -5.687585          -1.747217          -2.301064          -1.997188          -1.001228          -1.587932          -1.910320
hessian_block               10      12          -2.990962          -2.244513          -2.918286          -2.979396          -2.627325          -2.946452          -8.828353          -7.875178          -9.985270
hessian_block               11      11           8.483989           1.747625           1.689591           1.747625           6.801469          -0.972016           1.689591          -0.972016           7.630638
hessian_block               11      12           1.553146           0.372335          -0.065280           1.833521           0.179394           0.826753           5.680002           1.867625           1.794079
hessian_block               12      12           5.492605           0.830796           1.611695           0.830796           6.249862           3.771431           1.611695           3.771431          15.569219
hessian_block_lv             1       1          26.120541          -2.066371           6.839362          -2.066371          24.492999           3.680808           6.839362           3.680808           3.377613
hessian_block_lv_atom        1       1          -1.392424          -0.764994          -0.883707           3.369291           2.306972           2.232256           1.527350           0.991747           0.916298
hessian_block_lv_atom        1       2           3.451457           2.079241           2.159957           4.255903           2.612245           2.197312           2.324061           1.251954           1.198791
hessian_block_lv_atom        1       3           5.127419           3.144164           3.127495          -0.632793          -0.081827          -0.263798           3.458816           2.137877           2.036114
hessian_block_lv_atom        1       4           0.169289           0.127016           0.001413           0.192184           0.162142          -0.318108           0.412135           0.142825           0.095407
hessian_block_lv_atom        1       5          -2.447094          -1.500941          -1.130638           4.199351           3.104709           3.031035          -2.330623          -2.940350          -1.801279
hessian_block_lv_atom        1       6          -5.428382          -4.205232          -3.967557          -6.101157          -4.296150          -3.933493         -11.547365          -9.246450          -7.599220
hessian_block_lv_atom        1       7           2.292229           1.341000           1.928999          -1.373209          -1.404319          -1.171907           0.707887           2.060328           1.267950
hessian_block_lv_atom        1       8          -2.412270          -1.381508          -1.667843          -1.709647          -1.072027          -0.621659           4.676848           4.529573           3.410937
hessian_block_lv_atom        1       9           0.147627           0.234852          -0.252924          -4.677282          -3.438819          -2.931634           1.563388           2.685347           1.630867
hessian_block_lv_atom        1      10           5.840782           4.387198           4.257439           6.446792           4.188121           3.952431           8.488494           7.291026           5.673138
hessian_block_lv_atom        1      11          -3.606061          -2.271793          -2.701823          -2.580796          -1.012433          -0.780436          -1.974509          -2.656170          -1.753029
hessian_block_lv_atom        1      12          -1.742570          -1.189001          -0.870812          -1.388638          -1.068616          -1.392000          -7.306483          -6.247708          -5.075976
symmetry_n_params 39 3 36
symmetry_params a1 b2 c3 x0 x1 x2 x3 x4 x5 x6 x7 x8 x9 x10 x11 x12 x13 x14 x15 x16 x17 x18 x19 x20 x21 x22 x23 x24 x25 x26 x27 x28 x29 x30 x31 x32 x33 x34 x35
symmetry_lv a1 , 0 , 0 
symmetry_lv 0 , b2 , 0 
symmetry_lv 0 , 0 , c3
symmetry_frac x0 , x1 , x2
symmetry_frac x3 , x4 , x5
symmetry_frac x6 , x7 , x8
symmetry_frac x9 , x10 , x11
symmetry_frac x12 , x13 , x14
symmetry_frac x15 , x16 , x17
symmetry_frac x18 , x19 , x20
symmetry_frac x21 , x22 , x23
symmetry_frac x24 , x25 , x26
symmetry_frac x27 , x28 , x29
symmetry_frac x30 , x31 , x32
symmetry_frac x33 , x34 , x35
