# 
# This is the geometry file that corresponds to the current relaxation step.
# If you do not want this file to be written, set the "write_restart_geometry" flag to .false.
#  aims_uuid : E847E393-BC29-40F2-A787-11DDFD591E94                                
# 
lattice_vector      5.85107144      0.00000000      0.00000000
lattice_vector      0.00000000      5.95711343      0.00000000
lattice_vector      0.00000000      0.00000000      7.44874368
atom_frac       0.50226358      0.00169504      0.00158188 Pd
atom_frac       0.00168131      0.00167199      0.50237145 Pd
atom_frac       0.00174300      0.50226277      0.00158263 Pd
atom_frac       0.50232445      0.50224235      0.50237479 Pd
atom_frac       0.61410418      0.11973718      0.40423986 Se
atom_frac       0.89101287      0.88480435      0.90473623 Se
atom_frac       0.11349757      0.38428225      0.60041448 Se
atom_frac       0.39042269      0.62032280      0.09972281 Se
atom_frac       0.39044782      0.88483354      0.60041528 Se
atom_frac       0.11350113      0.11972510      0.09972325 Se
atom_frac       0.89101396      0.62032522      0.40425282 Se
atom_frac       0.61412627      0.38423623      0.90472337 Se
# 
# What follows is the current estimated Hessian matrix constructed by the BFGS algorithm.
# This is NOT the true Hessian matrix of the system.
# If you do not want this information here, switch it off using the "hessian_to_restart_geometry" keyword.
# 
trust_radius             0.0122100272
hessian_block                1       1           6.396527          -0.545280          -2.458873          -0.545280           7.217999          -0.769811          -2.458873          -0.769811           4.904645
hessian_block                1       2          -0.763569           1.428546           0.407479          -0.714762           1.676256           0.380804          -0.691977           0.935652           0.338423
hessian_block                1       3          -1.170160           2.021107           0.610999           0.232306          -0.483609          -0.043614          -0.865437           1.042317           0.378342
hessian_block                1       4           0.570938           0.114471          -0.130421           0.000250          -0.213743          -0.119505          -0.141558           0.315654           0.099162
hessian_block                1       5           0.507453          -1.131754          -0.463411          -1.183805           1.409267           0.782568           0.008962          -0.229294           0.037807
hessian_block                1       6          -0.687613          -1.526540           0.024208           1.647428          -2.178121          -0.914605           3.573930          -3.597219          -1.831815
hessian_block                1       7          -0.994249           1.104252           0.584064           0.480735          -0.357631          -0.140301           0.225952          -0.054553           0.014726
hessian_block                1       8           0.263190          -1.181562           0.071879          -0.053860          -2.368393           0.636129          -0.633509           1.822774          -0.069333
hessian_block                1       9          -0.182166           0.079007           0.214781           0.553082          -1.758328          -0.625401          -0.034207          -0.028547           0.082750
hessian_block                1      10          -3.715247           2.767143           1.851601          -1.428063           1.715060           0.474864          -0.879787           1.970405           0.399556
hessian_block                1      11           0.863652          -1.594639          -0.617345           0.874464          -0.750886          -0.278527           0.350203          -0.179685          -0.006175
hessian_block                1      12           0.477156          -1.534751          -0.094962           0.137503          -2.260847           0.617400           1.546302          -1.227695          -1.246223
hessian_block                2       2           7.191576           2.014179           3.447276           2.014179           9.462816           3.409255           3.447276           3.409255           6.090405
hessian_block                2       3           2.637308           3.353482           2.149060          -0.855699          -1.041896          -0.697366           1.259693           1.612711           1.148831
hessian_block                2       4           0.088543           0.441066           0.071540          -0.231731           0.821527           0.507614           0.442504           0.945286           0.516855
hessian_block                2       5          -2.927868          -1.175278          -1.809790           1.813381           1.248330           1.154398          -1.147161          -0.798966          -1.028176
hessian_block                2       6          -2.241025          -2.505746          -1.499835          -2.306804          -3.518485          -2.133369          -4.087380          -5.459390          -3.611339
hessian_block                2       7           0.963683           0.744994           0.590117          -1.082867          -2.460641          -1.291218          -0.481861          -1.542731          -0.936677
hessian_block                2       8          -1.008953          -1.593657          -0.997232          -0.430364          -1.084245          -0.717134           1.122246           1.363142           0.998654
hessian_block                2       9          -1.947976           0.445758          -0.907552          -0.967758          -2.912194          -1.166656          -1.062778          -0.024028          -0.627290
hessian_block                2      10           2.760068           3.039731           2.081859           2.695297           4.111686           2.841216           2.931608           4.268127           2.782599
hessian_block                2      11          -1.802952          -2.464291          -1.393258          -1.557733          -4.554458          -2.648364          -0.634959          -1.605786          -0.977934
hessian_block                2      12          -1.382923          -1.585477          -1.040208          -0.518446          -0.101673          -0.194029          -2.196665          -2.548426          -1.592488
hessian_block                3       3           9.264525          -1.178798           4.048015          -1.178798           6.461346          -1.662958           4.048015          -1.662958           5.843755
hessian_block                3       4           0.158974          -0.212518          -0.162391           0.056564           0.081515           0.100345           0.756894          -0.272313           0.393358
hessian_block                3       5          -1.887792           0.470543          -1.098251           1.840520          -0.089174           1.459955          -0.582472           0.288641          -0.236644
hessian_block                3       6          -3.349244           1.116559          -2.095306          -3.030642          -1.071114          -1.077314          -6.480164           2.236921          -4.225227
hessian_block                3       7           1.593942          -0.293033           1.144841          -0.745846           0.144077          -0.462150          -0.619365           0.154571          -0.276724
hessian_block                3       8          -3.327629           0.063533          -1.547760          -1.471777          -0.194496          -0.939763           0.809932          -0.603155           0.590458
hessian_block                3       9          -0.167732           0.309690           0.206938          -2.384757           0.374283          -1.456257          -0.429648           0.276590           0.004475
hessian_block                3      10           3.897039          -0.365763           2.280335           4.806073          -3.036924           3.353825           4.285206          -0.322740           2.129945
hessian_block                3      11          -2.335358           0.584187          -1.346732          -2.146802           0.550254          -1.269488          -0.579632           0.288515          -0.323604
hessian_block                3      12          -3.747960           0.128993          -1.823947          -1.119124          -0.047239          -0.701227          -3.968828           0.356909          -2.325104
hessian_block                4       4           5.952073           0.145586          -1.988752           0.145586           6.883118           1.553400          -1.988752           1.553400           4.978579
hessian_block                4       5          -0.398287           0.450788          -0.075666          -0.021351          -2.005024          -0.702096           0.009005          -1.367144          -0.752393
hessian_block                4       6           0.150389           0.194137          -0.404387          -0.025202          -0.602233          -0.823947           0.651315          -0.658816          -1.136347
hessian_block                4       7          -2.103754          -0.698946           1.021402          -0.136184          -0.251557           0.139580           0.773683          -0.179570          -0.658812
hessian_block                4       8          -0.202137          -0.290779          -0.407477           0.083035          -0.588870          -0.277074          -0.314383           0.050039           0.304121
hessian_block                4       9          -0.276486           0.625995           0.146853           0.277845          -2.419044          -1.445831           0.053406          -0.846573          -0.550310
hessian_block                4      10          -0.654990          -0.084606           0.525213          -0.422551           1.000352           1.036366          -0.184389           0.769727           1.009361
hessian_block                4      11          -1.694654          -0.284857           0.459990          -0.710341          -1.408518          -0.510793           0.932206          -0.001621          -0.644358
hessian_block                4      12          -0.024697           0.117598          -0.335014           0.466145           0.349499           0.041771           0.289182           0.192105          -0.457351
hessian_block                5       5           5.985821          -1.393166          -0.779592          -1.393166           7.712541          -1.544376          -0.779592          -1.544376           7.782186
hessian_block                5       6           1.517904          -2.314066           0.370570           1.626491          -2.453979           1.176469           2.896908          -4.791074           1.837372
hessian_block                5       7          -1.115530           2.218973          -0.437000          -0.450439          -0.531396           0.523323           0.563915           0.470068          -0.895128
hessian_block                5       8           0.704604          -0.693149           0.724228           0.852956          -0.646929          -0.243956          -0.456966           1.909583          -1.274887
hessian_block                5       9          -1.419978          -0.293966           1.688904           0.744334          -3.555892           2.807573           1.725942           2.427084          -3.386868
hessian_block                5      10          -1.821074           3.063335          -0.456971          -1.760337           2.807913          -1.344184          -1.815446           2.868264          -1.737271
hessian_block                5      11           1.444451          -2.325968           0.668093           1.827840          -1.202043           0.396908          -0.201587          -0.794258           1.315571
hessian_block                5      12           0.976207          -0.710740          -0.066564          -0.061979          -1.046590           0.335008           1.513946          -3.240118           1.440297
hessian_block                6       6           8.092156           3.210542           7.241879           3.210542           8.914263           7.802498           7.241879           7.802498          19.981141
hessian_block                6       7          -1.491340          -1.855489          -3.382716           1.272471           1.098446           2.476619           0.108295           0.192481           0.114123
hessian_block                6       8           0.946064           1.583209           2.452562           0.908880           1.097593           2.015472          -1.857633          -2.195156          -4.461392
hessian_block                6       9          -0.019129           0.049942          -0.191106           2.462851           3.251831           4.995178          -0.124078          -0.295960          -0.877680
hessian_block                6      10          -5.140690          -4.951067          -9.826160          -4.462664          -5.794349         -10.205175          -5.819242          -6.555576         -12.062149
hessian_block                6      11           2.078569           2.505235           4.111303           0.878876           2.243691           3.468038           0.453439           1.080320           2.065118
hessian_block                6      12           1.709873           1.546359           3.039629           0.764701           0.659480           1.716947           3.602091           3.744161           7.310063
hessian_block                7       7           6.262666          -0.018739           1.087723          -0.018739           6.319823          -1.346739           1.087723          -1.346739           7.818066
hessian_block                7       8          -0.701605           0.216697           0.072454          -0.365675          -0.103430           0.918405           1.366774          -1.125466           0.964952
hessian_block                7       9           0.450390           0.572050          -0.235414          -1.946869           0.315250          -0.307783           0.472167          -0.443108           1.268565
hessian_block                7      10           2.214107          -1.658944          -0.335437           2.251185          -1.474053          -0.638688           1.945662          -2.023749           0.010802
hessian_block                7      11          -2.895931           1.111974          -1.715268          -0.293532          -1.741768           2.934771          -2.024569           2.392998          -3.347280
hessian_block                7      12          -0.616469           0.439091           0.555327          -0.847120           0.689902          -0.600232          -2.368464           1.300212          -0.974746
hessian_block                8       8           5.233599           0.409680          -1.693405           0.409680           5.922627           0.904485          -1.693405           0.904485           8.429796
hessian_block                8       9           0.184102          -0.508817          -0.143581           1.134631           0.845062          -1.798112          -0.049448           0.417721           1.176166
hessian_block                8      10          -1.334105          -1.194703           2.531511          -2.059288          -1.499250           2.695798          -1.974035          -1.256902           3.235872
hessian_block                8      11           1.023752           0.363636          -1.578440           1.247173           1.591128          -0.399170           0.656694          -0.399281          -1.460037
hessian_block                8      12          -0.214969           1.407010           0.847451           1.163509          -1.323770          -2.624759           2.691543          -1.058101          -5.332505
hessian_block                9       9           5.040495          -0.595873          -0.783900          -0.595873           8.310601          -1.666690          -0.783900          -1.666690           7.650564
hessian_block                9      10           0.111373          -2.646578           0.115870          -0.090896          -3.129136           0.170550          -0.257173          -3.511263           0.678572
hessian_block                9      11          -0.280224           2.484660          -0.404767          -0.743700           1.907668           0.572736           0.388107           0.917158          -1.057430
hessian_block                9      12           0.073241           0.884433           0.521441           0.150809           0.416924          -0.559777          -0.126859           3.258086          -1.259649
hessian_block               10      10          10.044702           5.057451           6.517602           5.057451          11.384369           7.244603           6.517602           7.244603          13.516241
hessian_block               10      11          -2.609867          -2.669060          -2.613928          -1.718695          -3.368290          -2.403127          -0.862556          -1.518310          -1.761575
hessian_block               10      12          -2.185407          -1.917148          -2.136078          -1.307304          -1.070355          -1.047771          -4.422871          -4.110867          -5.100090
hessian_block               11      11           6.800347           1.474137           1.541384           1.474137           8.697923          -0.894180           1.541384          -0.894180           7.714660
hessian_block               11      12           0.974123           0.868317          -0.018729           0.814986          -0.317678           0.714130           2.888967           1.031198           1.584910
hessian_block               12      12           5.527737           0.356318           0.551656           0.356318           5.699371           2.302539           0.551656           2.302539          11.054753
hessian_block_lv             1       1          23.308472          -3.535717           5.500576          -3.535717          23.824839           3.102438           5.500576           3.102438           2.851165
hessian_block_lv_atom        1       1          -0.390987          -0.456173          -0.655585           0.686141           1.093701           0.870674           0.450612           0.562390           0.534919
hessian_block_lv_atom        1       2           0.707442           0.979618           1.010107           1.548668           1.770210           1.611346           0.801736           0.782271           0.845833
hessian_block_lv_atom        1       3           1.115870           1.585277           1.527292          -0.138270          -0.047273          -0.364209           1.002135           1.211559           1.106275
hessian_block_lv_atom        1       4          -0.022976           0.044717          -0.135877           0.666656           0.563210           0.339359           0.249458           0.144162           0.251981
hessian_block_lv_atom        1       5          -0.547740          -0.827093          -0.519162           1.327433           1.833018           1.581276          -1.935722          -2.891480          -1.786247
hessian_block_lv_atom        1       6          -1.369040          -2.390467          -1.901288          -1.987092          -2.566722          -2.079377          -4.530149          -6.422497          -4.683096
hessian_block_lv_atom        1       7           0.439804           0.606745           1.192234          -1.006948          -1.285710          -1.032087           1.086341           2.055058           1.125572
hessian_block_lv_atom        1       8          -0.597852          -0.700127          -0.888491          -0.456857          -0.594917          -0.229021           2.411760           3.567322           2.415414
hessian_block_lv_atom        1       9           0.153389           0.261007          -0.145198          -1.888624          -2.328647          -1.888757           1.520108           2.551529           1.387994
hessian_block_lv_atom        1      10           1.577062           2.684703           2.421139           2.235195           2.663505           2.463817           3.719336           5.455166           3.726387
hessian_block_lv_atom        1      11          -0.728788          -1.060491          -1.402152          -0.649196          -0.541713          -0.614975          -1.737088          -2.657872          -1.796866
hessian_block_lv_atom        1      12          -0.336182          -0.727714          -0.503021          -0.337106          -0.558664          -0.658046          -3.038530          -4.357608          -3.128167
symmetry_n_params 39 3 36
symmetry_params a1 b2 c3 x0 x1 x2 x3 x4 x5 x6 x7 x8 x9 x10 x11 x12 x13 x14 x15 x16 x17 x18 x19 x20 x21 x22 x23 x24 x25 x26 x27 x28 x29 x30 x31 x32 x33 x34 x35
symmetry_lv a1 , 0 , 0 
symmetry_lv 0 , b2 , 0 
symmetry_lv 0 , 0 , c3
symmetry_frac x0 , x1 , x2
symmetry_frac x3 , x4 , x5
symmetry_frac x6 , x7 , x8
symmetry_frac x9 , x10 , x11
symmetry_frac x12 , x13 , x14
symmetry_frac x15 , x16 , x17
symmetry_frac x18 , x19 , x20
symmetry_frac x21 , x22 , x23
symmetry_frac x24 , x25 , x26
symmetry_frac x27 , x28 , x29
symmetry_frac x30 , x31 , x32
symmetry_frac x33 , x34 , x35
