# 
# This is the geometry file that corresponds to the current relaxation step.
# If you do not want this file to be written, set the "write_restart_geometry" flag to .false.
#  aims_uuid : 96E34E93-D6F5-402C-A134-203A8F8C1B0C                                
# 
lattice_vector      3.28868589      0.00000000      0.00000000
lattice_vector     -1.64434294      2.84808552      0.00000000
lattice_vector      0.00000000      0.00000000     13.17789399
atom_frac       0.33051455      0.66586174      0.25376496 W
atom_frac       0.67706386      0.34170211      0.75380476 W
atom_frac       0.34325314      0.67554539      0.88199494 Se
atom_frac       0.66446060      0.33216305      0.38198394 Se
atom_frac       0.66437325      0.33209607      0.12546531 Se
atom_frac       0.34314434      0.67544139      0.62579582 Se
# 
# What follows is the current estimated Hessian matrix constructed by the BFGS algorithm.
# This is NOT the true Hessian matrix of the system.
# If you do not want this information here, switch it off using the "hessian_to_restart_geometry" keyword.
# 
trust_radius             0.0091328706
hessian_block                1       1         427.545357         146.430230         -61.943404         146.430230         161.497907         107.485187         -61.943404         107.485187         615.712450
hessian_block                1       2        -413.368072        -152.212743          59.805066        -147.873860        -152.222789        -109.693219         101.825333        -259.792570        -286.795920
hessian_block                1       3          -4.445780         -32.664066         -44.435416           4.661449          39.535904          50.493364          74.288970         249.245951         243.532350
hessian_block                1       4          -4.542902          37.887567          48.561751          -4.847612         -43.180313         -48.389291           0.648581         336.619703         228.023556
hessian_block                1       5          -4.200648          37.542748          47.977590          -2.673913         -45.370878         -51.066435          37.523961        -449.803863        -823.288297
hessian_block                1       6          -0.128723         -37.413353         -49.965587           3.874090          40.599402          51.170394        -152.343441          16.245591          37.263852
hessian_block                2       2         419.812182         143.674730        -102.116044         143.674730         167.715688         289.745965        -102.116044         289.745965        1370.074964
hessian_block                2       3          -0.966061          37.938623         104.575272          -2.175671         -48.088435        -131.082828         -76.512596        -264.371684        -891.683629
hessian_block                2       4          -0.574560         -37.574465        -111.240491           7.188212          39.855430         112.150761         -13.658268        -346.473911       -1142.795374
hessian_block                2       5          -1.661151         -36.272165        -106.261207           6.432921          40.539760         115.964870         -22.556196         461.917289        1429.388086
hessian_block                2       6          -2.383105          39.677522         113.217136          -3.337063         -46.940420        -126.986199         155.038037         -31.124440        -463.740137
hessian_block                3       3          15.465163         -15.996197         -76.748967         -15.996197          20.566715          96.351354         -76.748967          96.351354         712.561141
hessian_block                3       4         -11.595884          14.687529          83.269836          12.376765         -14.610603         -86.055640        -107.517451         134.625498         843.787255
hessian_block                3       5         -10.892006          13.854602          79.830311          11.966628         -14.633904         -89.303954         151.121050        -184.458561       -1083.896270
hessian_block                3       6          13.293800         -15.461328         -84.127553         -14.051369          18.089555          94.133973         -26.994489          34.071172         190.147143
hessian_block                4       4          16.464901         -15.064515         124.679865         -15.064515          17.102919        -126.491188         124.679865        -126.491188        1406.861293
hessian_block                4       5          14.769886         -14.111218         121.829606         -15.325022          16.464114        -134.984501        -172.212356         174.209385       -1621.675826
hessian_block                4       6         -13.662208          14.028751        -125.982332          14.959289         -14.772314         136.704399          26.941395         -25.424027         300.247087
hessian_block                5       5          16.091682         -15.925328        -168.790472         -15.925328          19.354977         185.297001        -168.790472         185.297001        2439.511604
hessian_block                5       6         -13.248532          15.095098         174.914012          14.481744         -15.494837        -187.161251          25.414173         -25.906981        -325.591306
hessian_block                6       6          16.988001         -16.356307         -28.055676         -16.356307          19.377846          32.138684         -28.055676          32.138684         276.121352
hessian_block_lv             1       1         301.892351          27.629468           0.000000          27.629468           4.017050           0.000000           0.000000           0.000000           0.000000
hessian_block_lv_atom        1       1           5.287360          14.080962           0.000000         156.026268          19.351101           0.000000         210.791568          15.765046           0.000000
hessian_block_lv_atom        1       2         -10.076824         -14.344884           0.000000        -160.652212         -19.719750           0.000000        -479.606570         -44.265266           0.000000
hessian_block_lv_atom        1       3         -50.694724          -4.811782           0.000000          62.334525           5.997386           0.000000         381.077697          44.826760           0.000000
hessian_block_lv_atom        1       4          57.470604           5.354740           0.000000         -58.536817          -5.675221           0.000000         562.681319          60.300560           0.000000
hessian_block_lv_atom        1       5          56.056685           5.181142           0.000000         -61.915410          -5.955291           0.000000        -769.775338         -76.821334           0.000000
hessian_block_lv_atom        1       6         -58.043101          -5.460179           0.000000          62.743647           6.001774           0.000000          94.831325           0.194233           0.000000
