# 
# This is the geometry file that corresponds to the current relaxation step.
# If you do not want this file to be written, set the "write_restart_geometry" flag to .false.
#  aims_uuid : 01FEB8FC-DBA8-447B-AEE9-91397AE055E5                                
# 
lattice_vector      5.69525666      0.00000000      0.00000000
lattice_vector      0.00000000      5.89257190      0.00000000
lattice_vector      0.00000000      0.00000000    101.32631514
atom_frac       0.71682559     -0.00269709      0.49985685 Se
atom_frac       0.60860380      0.61639877      0.49231416 Pd
atom_frac       0.00043258      0.49724971      0.49985596 Se
atom_frac       0.10856122      0.11644678      0.49231382 Pd
atom_frac       0.21687913      0.73551648      0.48478207 Se
atom_frac       0.50037740      0.23556946      0.48478290 Se
# 
# What follows is the current estimated Hessian matrix constructed by the BFGS algorithm.
# This is NOT the true Hessian matrix of the system.
# If you do not want this information here, switch it off using the "hessian_to_restart_geometry" keyword.
# 
trust_radius             0.1120678412
hessian_block                1       1           0.846553           0.002341           3.354007           0.002341           1.208481          -2.874139           3.354007          -2.874139         268.427636
hessian_block                1       2           0.004356          -0.153165          -0.761214          -0.163962          -0.602397          -4.359435           0.013479          -3.437284         -52.283214
hessian_block                1       3          -0.061849           0.031512          -1.889160           0.032480           0.250069          -2.050105           1.684099          -0.951566          75.999368
hessian_block                1       4          -0.343958          -0.063779           2.955602          -0.163768          -0.022232           0.473854           1.756165          -0.892543         -52.164699
hessian_block                1       5           0.044089           0.088940           1.934305           0.088176          -0.203014           1.871363          -1.682339           2.089628         -43.735233
hessian_block                1       6          -0.200191           0.094151          -5.593540           0.204732          -0.326936           6.938462          -5.125411           6.065903        -105.177051
hessian_block                2       2           1.248189           0.022292           5.037211           0.022292           1.417782           3.740407           5.037211           3.740407         228.268882
hessian_block                2       3          -0.379522           0.164560          -1.864939           0.287422          -0.265864           2.281793          -1.055088          -1.657049         -35.728247
hessian_block                2       4          -0.211381          -0.017953          -1.389512          -0.281200           0.046633          -0.706124          -1.582924           1.669899          71.386902
hessian_block                2       5          -0.417614          -0.088763          -1.705815           0.281797           0.023206           1.929659          -0.976494           1.679325         -52.310897
hessian_block                2       6           0.044971           0.083826          -0.090424          -0.157146          -0.315389          -3.808452          -0.661492          -1.073147         -68.266618
hessian_block                3       3           0.867884          -0.047859          -3.965871          -0.047859           1.409606          -3.010401          -3.965871          -3.010401         259.744450
hessian_block                3       4           0.000401          -0.118695           0.457270           0.187507          -0.631260          -3.381843           1.411105          -2.703001         -46.484389
hessian_block                3       5          -0.174555          -0.137059           4.980172          -0.280258          -0.192693           6.396298           4.686311           5.160112        -116.440806
hessian_block                3       6           0.036641          -0.016289          -2.100582          -0.055460          -0.265887           2.604561           1.622553           0.321602         -46.023569
hessian_block                4       4           1.191312           0.238281          -4.761443           0.238281           1.404734           4.474434          -4.761443           4.474434         211.590772
hessian_block                4       5           0.021964           0.153675           0.800030          -0.045764          -0.550402          -2.163390           0.138050          -2.337825         -43.882991
hessian_block                4       6          -0.369337          -0.134495           2.377067           0.007909           0.056498          -0.385400           2.600033           1.477504         -49.378788
hessian_block                5       5           0.950930          -0.048579          -4.060534          -0.048579           1.160143          -4.700771          -4.060534          -4.700771         264.524725
hessian_block                5       6          -0.135813           0.004628           1.895006           0.031785           0.066731          -1.890470          -1.948157          -3.333159          82.912008
hessian_block                6       6           0.912729          -0.031820           3.512473          -0.031820           1.088954          -3.458702           3.512473          -3.458702         277.000825
hessian_block_lv             1       1          18.094510           9.276172          -0.470028           9.276172          10.402133          -0.057556          -0.470028          -0.057556           0.071689
hessian_block_lv_atom        1       1          -0.101944           0.182152          -0.004562          -0.520458           0.152202          -0.026323           9.139296           8.893213           0.713322
hessian_block_lv_atom        1       2          -0.185769          -0.208556          -0.018564           0.061583          -0.225160           0.004737          -4.620337          -5.855671          -0.546562
hessian_block_lv_atom        1       3           0.152400          -0.169122           0.007275          -0.831842          -0.206429          -0.061121           7.825828           7.170676           0.556519
hessian_block_lv_atom        1       4           0.093882           0.189439           0.014127           0.212972           0.131059           0.020895          -1.845085          -4.348539          -0.277542
hessian_block_lv_atom        1       5          -0.064522           0.208868          -0.003309           0.383234          -0.106226           0.013501          -5.856775          -3.750838          -0.295897
hessian_block_lv_atom        1       6           0.105953          -0.202781           0.005033           0.694512           0.254554           0.048310          -4.642927          -2.108842          -0.149840
