# 
# This is the geometry file that corresponds to the current relaxation step.
# If you do not want this file to be written, set the "write_restart_geometry" flag to .false.
#  aims_uuid : D4404193-D5D1-4946-A02F-4751FC681B44                                
# 
lattice_vector      3.78049324      0.00000000      0.00000000
lattice_vector     -1.89024662      3.27400319      0.00000000
lattice_vector      0.00000000      0.00000000      4.94700535
atom_frac      -0.00026621     -0.00025655     -0.00025364 Pt
atom_frac       0.33299935      0.66638157      0.25984925 Se
atom_frac       0.66650975      0.33311788      0.73964728 Se
# 
# What follows is the current estimated Hessian matrix constructed by the BFGS algorithm.
# This is NOT the true Hessian matrix of the system.
# If you do not want this information here, switch it off using the "hessian_to_restart_geometry" keyword.
# 
trust_radius             0.0500000007
hessian_block                1       1           9.167457          -0.371587           0.449210          -0.371587           6.841178          -0.568258           0.449210          -0.568258          24.008772
hessian_block                1       2          -3.440455          -0.240933          -0.207654          -0.301881          -2.466421           0.453454           0.292112           0.523158         -10.486351
hessian_block                1       3          -3.863919          -0.319021          -0.241556          -0.258073          -2.511674           0.114804          -0.741322           0.045100         -10.449410
hessian_block                2       2           5.726929          -1.627408           0.054697          -1.627408           5.791962          -0.734857           0.054697          -0.734857          16.016076
hessian_block                2       3          -0.423391           0.997747          -0.346809           0.936800          -1.462458           0.211699           0.152957           0.281403          -2.456714
hessian_block                3       3           6.150393          -1.610268           0.588365          -1.610268           5.837215          -0.326503           0.588365          -0.326503          15.979135
hessian_block_lv             1       1          37.622119           5.784603           0.000000           5.784603           1.886124           0.000000           0.000000           0.000000           0.000000
hessian_block_lv_atom        1       1          -0.162996          -0.013857           0.000000          -0.105009          -0.042986           0.000000          -0.186413          -0.030466           0.000000
hessian_block_lv_atom        1       2           0.603657           0.211093           0.000000           2.527324           0.131166           0.000000           4.172384           2.717405           0.000000
hessian_block_lv_atom        1       3          -0.440661          -0.197236           0.000000          -2.422315          -0.088180           0.000000          -3.985972          -2.686939           0.000000
