# 
# This is the geometry file that corresponds to the current relaxation step.
# If you do not want this file to be written, set the "write_restart_geometry" flag to .false.
#  aims_uuid : 45A5A52B-1421-4E38-A7F7-6FBEA1F17337                                
# 
lattice_vector      3.71992605      0.00000000      0.00000000
lattice_vector     -1.85996303      3.22155046      0.00000000
lattice_vector      0.00000000      0.00000000    101.67761709
atom_frac       0.00060594      0.66720208      0.50127385 Se
atom_frac       0.33408276      0.33413197      0.47525899 Se
atom_frac       0.66735414      0.00070878      0.48826877 Pt
# 
# What follows is the current estimated Hessian matrix constructed by the BFGS algorithm.
# This is NOT the true Hessian matrix of the system.
# If you do not want this information here, switch it off using the "hessian_to_restart_geometry" keyword.
# 
trust_radius             0.0459329433
hessian_block                1       1           1.149416          -0.715114          -5.897961          -0.715114           1.022415           1.388971          -5.897961           1.388971        1065.465836
hessian_block                1       2          -0.005547           0.089739           2.161606           0.098558           0.014942          -0.130829          -0.792290           1.160285           3.507276
hessian_block                1       3          -0.899863           0.503371           3.736355           0.494552          -0.793351          -1.258142           6.690251          -2.549256        -889.820174
hessian_block                2       2           1.107314          -0.602372           1.177502          -0.602372           1.087241          -1.247000           1.177502          -1.247000         939.593288
hessian_block                2       3          -0.857760           0.381811          -0.385212           0.390629          -0.858176           0.086715          -3.339108           1.377829        -763.947626
hessian_block                3       3           2.001630          -1.007185          -3.351143          -1.007185           1.895534           1.171427          -3.351143           1.171427        1832.920737
hessian_block_lv             1       1          18.059798           0.096905           0.000000           0.096905           0.004792           0.000000           0.000000           0.000000           0.000000
hessian_block_lv_atom        1       1          -0.587884           0.008744           0.000000           0.336662          -0.010164           0.000000          71.659625           0.909690           0.000000
hessian_block_lv_atom        1       2           0.022544          -0.003492           0.000000          -0.006164           0.007890           0.000000         -52.266214          -1.408566           0.000000
hessian_block_lv_atom        1       3           0.565341          -0.005252           0.000000          -0.330499           0.002274           0.000000         -19.393411           0.498875           0.000000
