# 
# This is the geometry file that corresponds to the current relaxation step.
# If you do not want this file to be written, set the "write_restart_geometry" flag to .false.
#  aims_uuid : E66B4126-2B57-483A-A0FB-96FE49349057                                
# 
lattice_vector      5.84390346      0.00000000      0.00000000
lattice_vector      0.00000000      5.95316647      0.00000000
lattice_vector      0.00000000      0.00000000      7.51727253
atom_frac       0.50212303      0.00219477      0.00204869 Pd
atom_frac       0.00211140      0.00216765      0.50229201 Pd
atom_frac       0.00225003      0.50214935      0.00202267 Pd
atom_frac       0.50221756      0.50217677      0.50230472 Pd
atom_frac       0.61428740      0.12057126      0.40555096 Se
atom_frac       0.88997613      0.88376157      0.90548178 Se
atom_frac       0.11435411      0.38379859      0.59888648 Se
atom_frac       0.39010431      0.62057622      0.09879294 Se
atom_frac       0.39004116      0.88381200      0.59889400 Se
atom_frac       0.11429252      0.12050444      0.09879056 Se
atom_frac       0.89003691      0.62057724      0.40555514 Se
atom_frac       0.61429146      0.38379620      0.90546607 Se
# 
# What follows is the current estimated Hessian matrix constructed by the BFGS algorithm.
# This is NOT the true Hessian matrix of the system.
# If you do not want this information here, switch it off using the "hessian_to_restart_geometry" keyword.
# 
trust_radius             0.0976794464
hessian_block                1       1           5.982206           0.031052          -2.113977           0.031052           6.573989          -1.269164          -2.113977          -1.269164           4.663803
hessian_block                1       2          -0.072319           0.593560          -0.125850           0.238197           0.213607          -0.343167          -0.159933           0.139787          -0.070998
hessian_block                1       3          -0.137210           0.693359          -0.214028          -0.050552          -0.044773           0.130712          -0.160535           0.066624          -0.142890
hessian_block                1       4           0.518061           0.149497          -0.045414           0.076570          -0.524089          -0.165095           0.008505           0.032521          -0.022816
hessian_block                1       5          -0.010096          -0.556997          -0.052173          -0.366106           0.378094           0.166283          -0.140735           0.081045           0.213791
hessian_block                1       6          -1.777406           0.037591           0.821923           0.551410          -0.548295          -0.012899           1.552477          -0.492739          -0.258576
hessian_block                1       7          -0.320408           0.211337           0.055729           0.139112           0.122032           0.129689           0.059315           0.188448           0.117179
hessian_block                1       8          -0.219682          -0.294849           0.334975          -0.290922          -1.968987           0.874390          -0.009982           0.886846          -0.532883
hessian_block                1       9          -0.161958           0.158519           0.157090          -0.392477          -0.352603           0.050996          -0.094059          -0.007357           0.107907
hessian_block                1      10          -2.316970           0.709074           0.811360          -0.111887          -0.298122          -0.567491           0.486861          -0.187794          -0.738921
hessian_block                1      11           0.048343          -0.554511           0.003926           0.314128           0.169154           0.162152           0.167961           0.117804           0.219542
hessian_block                1      12           0.033350          -1.177629           0.366440          -0.138525          -2.072982           0.843591           0.404098           0.443978          -0.453274
hessian_block                2       2           6.159910           0.385121           2.520515           0.385121           7.397267           2.220402           2.520515           2.220402           5.396919
hessian_block                2       3           1.024048           0.965394           0.797428          -0.390654          -0.536352          -0.383613           0.145773           0.049002           0.255064
hessian_block                2       4           0.175608           0.614665           0.148807          -0.507967           0.744865           0.442802           0.134099           0.644501           0.339571
hessian_block                2       5          -2.156861           0.080969          -1.099424           0.573169          -0.644382           0.086062          -0.784691          -0.409117          -0.833532
hessian_block                2       6          -0.513697          -0.070847          -0.124060          -0.456430          -1.124720          -0.801272          -0.627937          -0.961611          -1.087882
hessian_block                2       7          -0.083478          -0.759280          -0.251625          -0.503792          -1.648829          -0.837479          -0.225098          -1.248436          -0.739269
hessian_block                2       8          -0.154929          -0.691330          -0.432926           0.024372          -0.441810          -0.373988           0.085406          -0.017877           0.223608
hessian_block                2       9          -1.947728           0.351489          -0.942860           0.574401          -0.888273          -0.005454          -1.029177           0.032659          -0.572509
hessian_block                2      10           0.461843          -0.091859           0.310349           0.415528           1.309388           1.242992           0.511243           1.203205           1.095354
hessian_block                2      11          -0.582274          -0.666566          -0.376304          -0.530387          -3.357060          -1.941400          -0.234803          -1.102778          -0.730638
hessian_block                2      12          -0.744211          -0.355952          -0.389970          -0.176922           0.623323           0.211161          -0.369481          -0.066786          -0.173824
hessian_block                3       3           6.809079          -0.500421           2.350031          -0.500421           6.347729          -1.255695           2.350031          -1.255695           4.728974
hessian_block                3       4           0.289753          -0.303692          -0.030951          -0.256928           0.046661          -0.055431           0.340795          -0.201040           0.123221
hessian_block                3       5          -0.677530           0.076085          -0.241482          -0.086577           0.465222           0.168578          -0.099773           0.180691           0.101207
hessian_block                3       6          -0.710410           0.503238          -0.388270          -0.329941          -1.716092           0.740399          -1.357148           1.085829          -0.895543
hessian_block                3       7           0.000045           0.142311           0.070492           0.115709          -0.107110           0.113597          -0.249196           0.108414          -0.036060
hessian_block                3       8          -2.082061          -0.058709          -0.871919          -0.804272          -0.334200          -0.458220          -0.749903          -0.243698          -0.408303
hessian_block                3       9          -0.179878           0.405741           0.134382          -0.080084          -0.132665           0.017916          -0.370387           0.263009           0.056347
hessian_block                3      10           0.426438           0.442367           0.045938           1.511841          -2.292157           1.184665           0.762075           0.475010          -0.201584
hessian_block                3      11          -0.455679           0.074698          -0.075487          -0.684374           0.282865          -0.307054          -0.028766           0.104277           0.089383
hessian_block                3      12          -2.740684          -0.340410          -0.977973          -0.543704          -0.332105          -0.264383          -1.181123          -0.263896          -0.567952
hessian_block                4       4           5.976236           0.176791          -1.965324           0.176791           7.053543           1.603656          -1.965324           1.603656           4.959820
hessian_block                4       5          -0.426756           0.693429           0.152893           0.109355          -2.262275          -1.063410           0.019089          -1.400008          -0.732891
hessian_block                4       6          -0.082626           0.417024           0.028863          -0.209170          -0.526385          -0.468536           0.282262          -0.454770          -0.452857
hessian_block                4       7          -1.974159          -0.843720           0.752196          -0.174242          -0.188586           0.273785           0.727798          -0.174880          -0.613988
hessian_block                4       8          -0.404231          -0.358991          -0.255710           0.089069          -0.507713          -0.197128          -0.194496          -0.022685           0.083388
hessian_block                4       9          -0.335461           0.570293           0.141504           0.069922          -2.327678          -1.114195           0.031486          -0.828362          -0.532046
hessian_block                4      10          -0.367807          -0.322977          -0.007073          -0.181208           0.981891           0.637540           0.031655           0.689667           0.584288
hessian_block                4      11          -1.849556          -0.081545           0.791752          -0.800493          -1.402808          -0.366083           0.963567           0.003081          -0.602419
hessian_block                4      12           0.046850           0.438018          -0.122497           0.459508           0.559595           0.218387           0.031521           0.362022          -0.031408
hessian_block                5       5           5.520612          -0.369491          -0.979844          -0.369491           6.421490          -1.101911          -0.979844          -1.101911           7.815251
hessian_block                5       6           0.110115          -0.471587          -0.224925           0.169933          -0.406657           0.715437           0.393380          -0.792876           1.071640
hessian_block                5       7          -0.195464           1.113982          -0.093186          -0.936899          -0.005728           0.366259           0.251939           0.735710          -1.021522
hessian_block                5       8          -0.164122           0.084876           0.427706           0.641859           0.016716          -0.306245           0.228391           0.675526          -1.035859
hessian_block                5       9          -1.560953          -0.429250           1.622061          -0.535225          -1.928249           2.331515           1.608743           2.470175          -3.468703
hessian_block                5      10           0.037230           0.585628           0.216136           0.077060           0.297099          -0.842358          -0.100767           0.042852          -1.293254
hessian_block                5      11           0.386233          -1.001021           0.216926           1.067462           0.090295           0.234449          -0.394154          -0.287456           1.359463
hessian_block                5      12           0.703504           0.257021          -0.178764          -0.408187          -0.774597           0.150241           0.232496          -1.099534           0.926271
hessian_block                6       6           5.616322           0.467509           2.052250           0.467509           6.220006           2.494395           2.052250           2.494395          10.556332
hessian_block                6       7           0.031759          -0.213412          -0.087196           0.492044           0.318706           0.804053          -0.185828          -0.085349          -0.658592
hessian_block                6       8           0.116190           0.543837           0.466412          -0.006859           0.267041           0.681466          -0.238397          -0.480688          -1.579023
hessian_block                6       9           0.212040           0.191337          -0.063105           0.318151           0.979302           0.585310          -0.147073          -0.319905          -1.147443
hessian_block                6      10          -1.896962          -1.421411          -3.285749          -1.231511          -2.638598          -4.044811          -2.142265          -2.963789          -5.628630
hessian_block                6      11           0.241858           0.510798           0.103904          -0.697916           0.785536           0.852670          -0.277691           0.493531           1.081381
hessian_block                6      12           0.218727           0.195542           0.570450           0.243162           0.037177           0.243084           0.825469           0.688672           2.101058
hessian_block                7       7           5.361104           0.430455           1.250673           0.430455           6.147683          -1.459726           1.250673          -1.459726           7.847293
hessian_block                7       8          -0.165727          -0.097359           0.048682           0.167879          -0.411708           0.739997           0.307381          -0.583787           1.216954
hessian_block                7       9           0.266611           0.631892          -0.126002          -0.620357          -0.346097          -0.529991           0.485513          -0.471913           1.334037
hessian_block                7      10           0.177110          -0.626058           0.121285           0.269389          -0.513077          -0.281931          -0.360037          -0.883210           0.553778
hessian_block                7      11          -1.814186           0.547814          -1.886464           0.686449          -2.311098           2.706261          -1.596722           2.219926          -3.519866
hessian_block                7      12           0.282706          -0.018676           0.212897          -0.585031           0.590841          -0.698520          -0.533215           0.328805          -1.378082
hessian_block                8       8           5.388420          -0.107414          -1.033646          -0.107414           5.805057           1.263056          -1.033646           1.263056           7.576358
hessian_block                8       9           0.560816          -0.652725          -0.131684           0.454918           0.080506          -0.413805          -0.026566           0.364343           1.278724
hessian_block                8      10          -0.243203          -0.108953           0.497809          -0.931887          -0.552525           0.724451          -0.512577          -0.380690           1.229719
hessian_block                8      11           0.333981          -0.276943          -0.300749           0.630259           1.279439           0.362787           0.202590          -0.433578          -1.158430
hessian_block                8      12          -1.399540           1.324913           1.539870           0.826647          -1.584794          -2.150130           1.652982          -1.773406          -3.792391
hessian_block                9       9           5.236392          -0.381003          -0.714694          -0.381003           6.513919          -1.682394          -0.714694          -1.682394           7.722279
hessian_block                9      10          -0.183949           0.178373           0.236785          -0.324439          -0.464923           0.247770          -0.288102          -0.414560           0.882893
hessian_block                9      11          -0.089416           0.890840          -0.382050          -0.732226           0.621294           0.499043           0.269248           0.309725          -1.168816
hessian_block                9      12          -0.250604          -0.477457           0.401476           0.210371          -0.107511          -0.567071          -0.057837           0.864937          -1.390808
hessian_block               10      10           5.839217           0.894374           1.941740           0.894374           7.676316           3.104193           1.941740           3.104193           9.217576
hessian_block               10      11          -0.129580          -0.251934           0.212794           0.274886          -1.668204          -0.677066          -0.016024          -0.834301          -1.185508
hessian_block               10      12          -0.237455          -0.135326          -0.542618          -0.513442          -0.190063          -0.007817          -0.872557          -0.570722          -1.413851
hessian_block               11      11           5.521374           0.304793           0.990545           0.304793           8.062688          -1.125491           0.990545          -1.125491           7.789199
hessian_block               11      12          -0.045187           0.167420          -0.045753           0.503580          -0.905075           0.535261           0.701207          -0.400269           0.928573
hessian_block               12      12           5.698453           0.122539          -0.833561           0.122539           5.803217           1.486197          -0.833561           1.486197           8.347549
hessian_block_lv             1       1          22.390596          -3.366574           4.212319          -3.366574          23.801641           2.829718           4.212319           2.829718           1.796561
hessian_block_lv_atom        1       1           0.460589          -0.089989           0.005006          -0.899864           0.231564          -0.187927          -0.547069           0.206241          -0.027312
hessian_block_lv_atom        1       2          -1.127789           0.074209          -0.156556          -0.674397           0.906698           0.074325          -0.255826           0.329842           0.046534
hessian_block_lv_atom        1       3          -1.500454           0.352561          -0.210871           0.546034           0.148993           0.034423          -0.868779           0.445752          -0.032342
hessian_block_lv_atom        1       4          -0.097930           0.065511          -0.028108           0.759030           0.732346           0.262052           0.117637           0.112488           0.049896
hessian_block_lv_atom        1       5           0.590740          -0.235765           0.304562          -0.691382           0.877133           0.226887          -1.942282          -2.757389          -1.491497
hessian_block_lv_atom        1       6           1.567759          -1.201753          -0.141456           0.702179          -1.519970          -0.275935          -0.015579          -4.597156          -1.605824
hessian_block_lv_atom        1       7          -1.302525          -0.098581           0.017596          -0.572848          -1.050822          -0.473480           1.836823           2.167000           1.406389
hessian_block_lv_atom        1       8           0.967610          -0.297454          -0.207184           0.197262          -0.317937           0.175775           1.146103           2.909594           1.450807
hessian_block_lv_atom        1       9           0.399590           0.224547          -0.156574           0.410398          -1.394592          -0.352873           2.005306           2.572512           1.502576
hessian_block_lv_atom        1      10          -1.839740           1.395975           0.243790          -0.768961           1.583549           0.398767           0.778379           4.280182           1.578699
hessian_block_lv_atom        1      11           1.544594          -0.024730           0.017644           0.756018          -0.062011           0.261820          -1.830957          -2.530827          -1.454156
hessian_block_lv_atom        1      12           0.337556          -0.164532           0.312150           0.236531          -0.134951          -0.143834          -0.423756          -3.138240          -1.423772
