# 
# This is the geometry file that corresponds to the current relaxation step.
# If you do not want this file to be written, set the "write_restart_geometry" flag to .false.
#  aims_uuid : C8F82C2D-9810-4B8E-A062-FF22A21BC7E2                                
# 
lattice_vector      5.83780841      0.00000000      0.00000000
lattice_vector      0.00000000      5.95036562      0.00000000
lattice_vector      0.00000000      0.00000000      7.51795619
atom_frac       0.50113714      0.00041324      0.00028939 Pd
atom_frac       0.00041232      0.00047840      0.50137165 Pd
atom_frac       0.00052149      0.50113417      0.00031429 Pd
atom_frac       0.50124745      0.50119851      0.50134764 Pd
atom_frac       0.61287554      0.11861911      0.40368704 Se
atom_frac       0.89026976      0.88373234      0.90431349 Se
atom_frac       0.11215659      0.38305213      0.59876069 Se
atom_frac       0.38941870      0.61937152      0.09792122 Se
atom_frac       0.38948198      0.88374771      0.59876728 Se
atom_frac       0.11215224      0.11870253      0.09795038 Se
atom_frac       0.89020465      0.61928496      0.40369860 Se
atom_frac       0.61288598      0.38302923      0.90434214 Se
# 
# What follows is the current estimated Hessian matrix constructed by the BFGS algorithm.
# This is NOT the true Hessian matrix of the system.
# If you do not want this information here, switch it off using the "hessian_to_restart_geometry" keyword.
# 
trust_radius             0.0122099308
hessian_block                1       1           6.296770          -0.906519          -2.537722          -0.906519           8.791067          -0.255864          -2.537722          -0.255864           5.104375
hessian_block                1       2          -0.947353           2.841180           0.882271          -0.420737           2.367613           0.658910          -0.481252           1.339816           0.454153
hessian_block                1       3          -1.330879           3.965629           1.257659           0.009185          -0.439232          -0.030159          -0.954308           2.223078           0.784993
hessian_block                1       4           0.514690           0.246002          -0.053100           0.409554          -1.022051          -0.330080           0.059643           0.077289           0.019627
hessian_block                1       5           0.507237          -2.018086          -0.756342          -1.557715           3.216817           1.315571          -0.139783          -0.196024           0.073000
hessian_block                1       6          -0.174100          -3.979237          -0.760131           1.885129          -4.220856          -1.574571           3.833791          -7.050984          -2.893818
hessian_block                1       7          -1.077958           2.100244           0.835123           0.485580          -0.675127          -0.197066           0.043081           0.066576          -0.029350
hessian_block                1       8           0.337703          -2.082742          -0.226907          -0.065529          -2.722242           0.449798          -0.792944           2.923367           0.275515
hessian_block                1       9          -0.095712          -0.042390           0.164715           0.617127          -2.947801          -1.024516          -0.176638           0.169644           0.095816
hessian_block                1      10          -3.964707           5.164946           2.540847          -1.327635           3.484248           1.033544          -0.974315           4.273414           1.096217
hessian_block                1      11           1.099754          -3.124238          -1.076267           0.456212          -0.897880          -0.412131           0.197014          -0.149723           0.073251
hessian_block                1      12           0.400465          -2.164787          -0.270146           0.415348          -3.287533           0.366561           1.923430          -3.420592          -1.951916
hessian_block                2       2           8.325308           2.274134           3.519878           2.274134           8.548166           2.676612           3.519878           2.676612           5.567310
hessian_block                2       3           4.099315           3.429391           2.052249          -0.648034          -0.520567          -0.301655           2.168226           1.733802           1.117071
hessian_block                2       4           0.190128           0.528639           0.090245          -1.137438          -0.209123          -0.199234           0.113111           0.410770           0.168376
hessian_block                2       5          -3.528898          -1.014580          -1.614358           3.425190           2.104248           1.688837          -0.993108          -0.365853          -0.755786
hessian_block                2       6          -4.409319          -3.631267          -2.149626          -3.923938          -3.889042          -2.276208          -6.711785          -5.778817          -3.648740
hessian_block                2       7           1.783788           0.929741           0.708460          -1.365243          -2.542877          -1.381764          -0.220561          -0.966903          -0.459070
hessian_block                2       8          -1.639249          -1.630672          -0.938113          -0.643118          -0.846618          -0.488032           2.066230           1.789670           1.233171
hessian_block                2       9          -2.091708           0.262724          -1.026298          -1.932515          -3.060189          -1.199102          -0.803080           0.354979          -0.310630
hessian_block                2      10           4.667249           3.474791           2.290006           3.800836           3.589659           2.350929           4.591278           4.218119           2.631723
hessian_block                2      11          -3.110661          -2.972066          -1.678013          -1.233145          -3.180767          -1.584179          -0.498284          -1.219240          -0.768980
hessian_block                2      12          -1.772689          -1.230098          -0.773178          -1.457911          -0.713480          -0.626020          -4.114178          -3.512053          -2.126735
hessian_block                3       3          11.055461          -0.770706           5.182413          -0.770706           6.229378          -1.434103           5.182413          -1.434103           6.562344
hessian_block                3       4           0.261386          -0.225271          -0.070065          -1.343064           0.307937          -0.694369           0.222495          -0.107071           0.082085
hessian_block                3       5          -2.536587           0.194697          -1.526387           4.113748          -0.009014           2.802451          -0.295351           0.118206          -0.057431
hessian_block                3       6          -6.349005           1.012072          -3.904489          -5.160433          -1.403760          -2.402049          -9.837136           1.511957          -6.267456
hessian_block                3       7           2.708309          -0.120607           1.786756          -1.195412           0.101661          -0.690156          -0.089005          -0.025872          -0.037222
hessian_block                3       8          -4.069361          -0.147257          -2.034179          -1.639233          -0.329621          -1.098145           2.109952          -0.493248           1.365558
hessian_block                3       9          -0.399740           0.374230           0.068995          -3.677379           0.157068          -2.255230           0.033707           0.178484           0.229794
hessian_block                3      10           6.395965           0.041072           3.767009           6.039556          -2.371468           4.159135           6.336862           0.266413           3.389073
hessian_block                3      11          -4.128995           0.427591          -2.420498          -1.287157          -0.031726          -0.872564          -0.349582           0.118413          -0.149626
hessian_block                3      12          -4.139957          -0.146972          -2.063473          -2.474939          -0.043633          -1.471853          -6.624260           0.198634          -3.917319
hessian_block                4       4           5.894296           0.088874          -1.986071           0.088874           6.893120           1.431320          -1.986071           1.431320           4.867588
hessian_block                4       5          -0.419173           1.184864           0.229470           0.187211          -2.847612          -0.940580           0.003768          -1.148507          -0.634921
hessian_block                4       6          -0.068728           1.378423          -0.076687          -0.199809           0.690949          -0.357653           0.358796           1.659092          -0.297158
hessian_block                4       7          -1.936641          -1.308787           0.777885          -0.268845          -0.063385           0.206309           0.835805           0.077489          -0.468399
hessian_block                4       8          -0.190024           0.338275          -0.186897           0.105153          -0.154181          -0.083905          -0.176277          -0.494794           0.137529
hessian_block                4       9          -0.278188           0.631034           0.117897           0.066734          -1.627255          -1.115565           0.093769          -0.773165          -0.445945
hessian_block                4      10          -0.427751          -1.580053           0.001351          -0.301608          -0.558054           0.370145          -0.019091          -0.928369           0.372351
hessian_block                4      11          -1.882977           0.547010           0.753921          -0.603672          -0.522168          -0.004565           0.891398           0.174720          -0.543277
hessian_block                4      12          -0.091107           0.791307          -0.026116           0.376592           0.758845           0.113504           0.030824           1.225896          -0.155994
hessian_block                5       5           6.157824          -2.430131          -0.974606          -2.430131           9.712165          -1.514752          -0.974606          -1.514752           7.624860
hessian_block                5       6           2.864087          -5.097436           0.297227           2.467576          -4.861149           0.970608           4.156634          -8.752597           1.342565
hessian_block                5       7          -1.584872           3.267436          -0.342768          -0.209238          -0.818278           0.449117           0.227825           0.514873          -1.047681
hessian_block                5       8           0.919488          -1.786145           0.603187           0.862884          -1.152448          -0.378349          -1.020847           3.112285          -1.184706
hessian_block                5       9          -1.282171          -0.430387           1.718141           1.284791          -4.895192           2.617491           1.460641           2.615820          -3.461222
hessian_block                5      10          -2.822721           5.742453          -0.181890          -2.048856           4.915814          -0.906471          -2.514646           5.541717          -1.313061
hessian_block                5      11           2.224023          -4.016478           0.589937           1.152260          -1.550245          -0.028774          -0.358439          -0.718099           1.184122
hessian_block                5      12           1.067673          -1.417748          -0.284754           0.573819          -2.168080           0.383306           2.691054          -5.665526           1.332124
hessian_block                6       6          11.902687           6.476188          12.583717           6.476188          11.452372          11.862129          12.583717          11.862129          26.190551
hessian_block                6       7          -2.988832          -3.019236          -5.240758           1.735480           1.559165           3.101635          -0.017511          -0.227986          -0.636658
hessian_block                6       8           2.333901           2.581023           3.976575           1.519297           1.382124           2.487458          -3.548450          -3.626246          -6.729643
hessian_block                6       9           0.148876           0.250476           0.176659           4.386373           4.720349           7.316142          -0.395477          -0.727898          -1.606495
hessian_block                6      10          -8.782749          -7.809229         -14.254406          -7.245011          -7.582155         -12.759852          -9.381289          -9.172514         -15.937465
hessian_block                6      11           4.443064           4.413095           7.247495           1.162922           1.735337           2.374725           0.351298           0.895767           1.593870
hessian_block                6      12           2.646028           2.039159           3.710418           2.282195           2.063690           4.029112           7.001417           6.636620          11.992312
hessian_block                7       7           6.710514          -0.102840           1.182497          -0.102840           6.166609          -1.267789           1.182497          -1.267789           7.523483
hessian_block                7       8          -1.270634           0.525415          -0.229859          -0.604754           0.042144           0.640572           1.945297          -1.259870           1.002318
hessian_block                7       9           0.320905           0.576524          -0.184700          -2.489505           0.430017          -0.480645           0.627411          -0.410449           1.121990
hessian_block                7      10           3.504235          -2.040491           0.030966           3.114856          -1.878748           0.111865           3.178196          -2.453102           0.628026
hessian_block                7      11          -3.729419           1.363411          -1.846715          -0.261208          -1.529631           2.134238          -1.882898           2.268297          -3.440938
hessian_block                7      12          -0.873482           0.495659           0.268178          -1.505339           0.855475          -0.576419          -3.575199           1.634838          -1.054637
hessian_block                8       8           5.490340           0.448499          -2.316911           0.448499           5.797345           0.585204          -2.316911           0.585204           9.150681
hessian_block                8       9           0.287848          -0.449525          -0.238878           1.825432           1.072605          -2.601754          -0.302367           0.240368           1.300521
hessian_block                8      10          -2.478611          -1.623902           4.033706          -2.587041          -1.467295           3.850719          -2.885754          -1.457882           4.707007
hessian_block                8      11           1.889786           0.724205          -2.575883           0.719200           1.029160          -0.521128           0.589866          -0.472054          -1.324122
hessian_block                8      12          -0.045276           1.366026           0.515004           1.796012          -1.003949          -3.264208           3.951360          -0.425035          -6.831967
hessian_block                9       9           5.014146          -0.456750          -0.751514          -0.456750           9.046592          -1.876654          -0.751514          -1.876654           7.585760
hessian_block                9      10          -0.133420          -4.234312           0.524371          -0.350387          -4.156925           0.763701          -0.517711          -4.993736           1.216704
hessian_block                9      11          -0.116754           3.519707          -0.625733          -0.571129           1.711792           0.101464           0.422175           0.681403          -1.110194
hessian_block                9      12           0.191829           1.090300           0.314908           0.205580           1.195962          -0.636295           0.050520           4.932165          -1.514236
hessian_block               10      10          13.181085           7.041794           9.356360           7.041794          11.953782           8.692233           9.356360           8.692233          15.875054
hessian_block               10      11          -4.780947          -4.204944          -4.703736          -1.299082          -1.884701          -1.337095          -0.572187          -1.148864          -1.387714
hessian_block               10      12          -2.791717          -1.931560          -2.466154          -2.877987          -2.397134          -2.649198          -7.536133          -6.517085          -8.176052
hessian_block               11      11           8.182985           1.513709           1.425385           1.513709           6.721542          -1.178891           1.425385          -1.178891           7.579827
hessian_block               11      12           1.476052           0.251089          -0.215746           1.809000           0.046311           0.748271           4.910107           1.328899           1.395647
hessian_block               12      12           5.498091           0.857627           1.291059           0.857627           6.340550           3.583238           1.291059           3.583238          14.110635
hessian_block_lv             1       1          25.924026          -2.369214           6.384148          -2.369214          24.074145           3.193606           6.384148           3.193606           3.025002
hessian_block_lv_atom        1       1          -1.033306          -0.436160          -0.706603           2.548856           1.558264           1.860642           1.205690           0.700630           0.742461
hessian_block_lv_atom        1       2           2.576285           1.286480           1.777019           3.266283           1.720023           1.698999           1.772478           0.746390           0.945937
hessian_block_lv_atom        1       3           3.814917           1.946705           2.526258          -0.403831           0.116324          -0.159473           2.663567           1.409018           1.660172
hessian_block_lv_atom        1       4           0.105403           0.063976          -0.015394           0.257112           0.220551          -0.329352           0.330234           0.071353           0.036166
hessian_block_lv_atom        1       5          -1.818881          -0.923124          -0.877967           3.416260           2.373693           2.645102          -2.123385          -2.705004          -1.589972
hessian_block_lv_atom        1       6          -4.255758          -3.106532          -3.344623          -4.857433          -3.168194          -3.251177          -9.374099          -7.171444          -6.346936
hessian_block_lv_atom        1       7           1.702192           0.819072           1.650711          -1.301038          -1.319721          -1.083478           0.903275           2.179834           1.252467
hessian_block_lv_atom        1       8          -1.830891          -0.851942          -1.380299          -1.253274          -0.651276          -0.408366           4.016733           3.888941           2.958956
hessian_block_lv_atom        1       9           0.147479           0.215803          -0.252547          -3.840771          -2.668508          -2.465834           1.609448           2.658138           1.532283
hessian_block_lv_atom        1      10           4.515486           3.139385           3.559930           5.084200           2.951245           3.225548           6.936248           5.805367           4.734156
hessian_block_lv_atom        1      11          -2.705657          -1.453296          -2.277722          -1.780878          -0.301739          -0.438457          -1.831059          -2.487651          -1.577594
hessian_block_lv_atom        1      12          -1.217270          -0.700365          -0.658764          -1.135486          -0.830662          -1.294152          -6.109131          -5.095571          -4.348095
symmetry_n_params 39 3 36
symmetry_params a1 b2 c3 x0 x1 x2 x3 x4 x5 x6 x7 x8 x9 x10 x11 x12 x13 x14 x15 x16 x17 x18 x19 x20 x21 x22 x23 x24 x25 x26 x27 x28 x29 x30 x31 x32 x33 x34 x35
symmetry_lv a1 , 0 , 0 
symmetry_lv 0 , b2 , 0 
symmetry_lv 0 , 0 , c3
symmetry_frac x0 , x1 , x2
symmetry_frac x3 , x4 , x5
symmetry_frac x6 , x7 , x8
symmetry_frac x9 , x10 , x11
symmetry_frac x12 , x13 , x14
symmetry_frac x15 , x16 , x17
symmetry_frac x18 , x19 , x20
symmetry_frac x21 , x22 , x23
symmetry_frac x24 , x25 , x26
symmetry_frac x27 , x28 , x29
symmetry_frac x30 , x31 , x32
symmetry_frac x33 , x34 , x35
