# 
# This is the geometry file that corresponds to the current relaxation step.
# If you do not want this file to be written, set the "write_restart_geometry" flag to .false.
#  aims_uuid : 6A48073D-1E56-481A-A5CC-18C924A1A0E1                                
# 
lattice_vector      5.85113195      0.00000000      0.00000000
lattice_vector      0.00000000      5.95733513      0.00000000
lattice_vector      0.00000000      0.00000000      7.44913287
atom_frac       0.50224654      0.00168793      0.00158494 Pd
atom_frac       0.00167767      0.00168167      0.50237593 Pd
atom_frac       0.00173711      0.50225538      0.00158898 Pd
atom_frac       0.50230632      0.50225023      0.50237298 Pd
atom_frac       0.61409610      0.11974080      0.40422862 Se
atom_frac       0.89100275      0.88480889      0.90471229 Se
atom_frac       0.11351386      0.38426202      0.60040866 Se
atom_frac       0.39042009      0.62030763      0.09973531 Se
atom_frac       0.39044713      0.88481916      0.60041007 Se
atom_frac       0.11353093      0.11972876      0.09973045 Se
atom_frac       0.89100125      0.62030758      0.40423448 Se
atom_frac       0.61410628      0.38423601      0.90470330 Se
# 
# What follows is the current estimated Hessian matrix constructed by the BFGS algorithm.
# This is NOT the true Hessian matrix of the system.
# If you do not want this information here, switch it off using the "hessian_to_restart_geometry" keyword.
# 
trust_radius             0.0122099308
hessian_block                1       1           6.194363          -0.381017          -2.341952          -0.381017           7.297775          -0.776096          -2.341952          -0.776096           4.874040
hessian_block                1       2          -0.524201           1.455701           0.367469          -0.316279           1.337133           0.226191          -0.435481           0.685118           0.219965
hessian_block                1       3          -0.809785           1.974903           0.526286           0.097116          -0.398619           0.017609          -0.619961           1.008560           0.317186
hessian_block                1       4           0.506237           0.222963          -0.065633           0.089789          -0.516361          -0.194956          -0.029652           0.104707           0.020920
hessian_block                1       5           0.304449          -1.124133          -0.412765          -0.850537           1.337691           0.680403          -0.127018           0.076022           0.174479
hessian_block                1       6          -1.063187          -1.457080           0.120877           1.266268          -1.955578          -0.781154           2.716013          -2.912659          -1.406957
hessian_block                1       7          -0.724674           1.027339           0.478207           0.247240          -0.070887          -0.004372           0.256071          -0.211466          -0.081031
hessian_block                1       8           0.124169          -1.168458           0.094803          -0.087917          -2.323273           0.634932          -0.308047           1.517252          -0.244885
hessian_block                1       9          -0.134423           0.021564           0.177189           0.141721          -1.471324          -0.478959           0.031654          -0.249083          -0.024356
hessian_block                1      10          -3.153095           2.486004           1.612675          -0.904453           1.315761           0.248221          -0.316749           1.442977           0.088422
hessian_block                1      11           0.574096          -1.604479          -0.549074           0.694267          -0.602190          -0.225378           0.167186           0.176657           0.174423
hessian_block                1      12           0.271962          -1.453305          -0.008082           0.003802          -2.303103           0.653558           1.007933          -0.861991          -1.010342
hessian_block                2       2           7.120336           1.577650           3.112970           1.577650           8.796389           2.924412           3.112970           2.924412           5.750670
hessian_block                2       3           2.454245           2.726910           1.670684          -0.719094          -0.881397          -0.568039           1.134436           1.217628           0.845476
hessian_block                2       4           0.212191           0.609452           0.156078          -0.527495           0.668043           0.409112           0.216026           0.739876           0.386771
hessian_block                2       5          -2.820220          -0.814060          -1.536567           1.607893           0.570933           0.693458          -0.815547          -0.461583          -0.849699
hessian_block                2       6          -2.055997          -1.823930          -1.016687          -1.985086          -2.914431          -1.694234          -3.147848          -3.916742          -2.584371
hessian_block                2       7           0.780188           0.225150           0.241495          -0.729296          -1.907999          -0.961835          -0.644774          -1.716401          -0.979811
hessian_block                2       8          -0.930304          -1.402963          -0.826490          -0.401889          -1.029529          -0.659832           0.734688           0.757080           0.614293
hessian_block                2       9          -2.021616           0.378476          -0.945415          -0.578745          -2.180661          -0.660885          -1.291214          -0.274987          -0.729262
hessian_block                2      10           2.273397           1.956366           1.357759           2.123491           3.262194           2.228375           2.246091           3.258642           2.125603
hessian_block                2      11          -1.705926          -1.968544          -1.029125          -1.352533          -4.334715          -2.434880          -0.225674          -1.150372          -0.737405
hessian_block                2      12          -1.216182          -1.148228          -0.749222          -0.470598           0.261064           0.039229          -1.686624          -1.603747          -0.960367
hessian_block                3       3           8.928581          -0.991015           3.822035          -0.991015           6.391617          -1.531601           3.822035          -1.531601           5.690986
hessian_block                3       4           0.341465          -0.267909          -0.038483          -0.300518           0.084853          -0.106995           0.458381          -0.229696           0.207023
hessian_block                3       5          -1.687648           0.338615          -0.959458           1.432525           0.148018           1.199097          -0.137334           0.216077           0.049934
hessian_block                3       6          -2.983067           0.901316          -1.856515          -2.564774          -1.238140          -0.787271          -5.107494           1.763677          -3.319713
hessian_block                3       7           1.259278          -0.105755           0.916252          -0.201059          -0.019944          -0.126436          -0.859733           0.223395          -0.441207
hessian_block                3       8          -3.206047          -0.004308          -1.473302          -1.454565          -0.154072          -0.929693           0.227108          -0.412165           0.211977
hessian_block                3       9          -0.266912           0.346519           0.137690          -1.768114           0.163451          -1.077916          -0.755593           0.345580          -0.208585
hessian_block                3      10           3.102982          -0.001285           1.749506           4.009232          -2.776503           2.844738           3.332518          -0.031135           1.500994
hessian_block                3      11          -2.100296           0.409609          -1.185636          -1.905404           0.522950          -1.112894          -0.014233           0.160432           0.045702
hessian_block                3      12          -3.466884          -0.003808          -1.626565          -0.958118          -0.195191          -0.597218          -3.162620           0.045866          -1.797910
hessian_block                4       4           5.942589           0.148308          -1.963121           0.148308           7.016964           1.595935          -1.963121           1.595935           4.965071
hessian_block                4       5          -0.487256           0.653638           0.086864           0.112474          -2.336014          -0.985047           0.001382          -1.402538          -0.732046
hessian_block                4       6          -0.037768           0.550808          -0.091855          -0.218210          -0.409252          -0.580862           0.316234          -0.313503          -0.666811
hessian_block                4       7          -1.988554          -0.928495           0.813210          -0.181278          -0.158756           0.263131           0.739414          -0.127513          -0.643653
hessian_block                4       8          -0.270913          -0.191267          -0.309016           0.041217          -0.540999          -0.240264          -0.202860          -0.044142           0.142835
hessian_block                4       9          -0.267741           0.650460           0.145122           0.109690          -2.209617          -1.199228           0.030834          -0.808408          -0.551929
hessian_block                4      10          -0.434431          -0.480623           0.137735          -0.205244           0.828070           0.763737           0.032706           0.595850           0.726680
hessian_block                4      11          -1.843595           0.011709           0.708874          -0.803353          -1.363286          -0.435491           0.920598          -0.027962          -0.600970
hessian_block                4      12          -0.106314           0.323684          -0.172565           0.431891           0.583376           0.203200           0.072852           0.425117          -0.152028
hessian_block                5       5           5.855486          -1.187067          -1.013158          -1.187067           7.448833          -1.167160          -1.013158          -1.167160           7.735343
hessian_block                5       6           1.348502          -1.978909          -0.099428           1.384410          -1.912423           0.792180           2.169802          -3.441244           1.131869
hessian_block                5       7          -0.931064           1.930219          -0.172286          -0.715395          -0.196584           0.386802           0.654866           0.371772          -0.937271
hessian_block                5       8           0.613678          -0.525844           0.561498           0.846444          -0.518094          -0.331846          -0.164485           1.406201          -1.011953
hessian_block                5       9          -1.357658          -0.376801           1.694230           0.422051          -3.028107           2.422707           1.867924           2.240415          -3.392030
hessian_block                5      10          -1.399124           2.367694           0.073024          -1.299917           1.953858          -0.938149          -1.308930           1.874892          -1.292106
hessian_block                5      11           1.308539          -2.089327           0.306916           1.636966          -0.779507           0.241152          -0.493810          -0.349114           1.268729
hessian_block                5      12           0.818227          -0.442322          -0.272278          -0.141553          -1.041577           0.166334           1.109716          -2.523673           0.956613
hessian_block                6       6           7.741673           2.693310           5.797599           2.693310           8.418142           6.414098           5.797599           6.414098          16.566624
hessian_block                6       7          -1.153048          -1.404819          -2.280181           0.801076           0.585547           1.450982           0.340116           0.453496           0.446630
hessian_block                6       8           0.824178           1.453161           1.987034           0.814795           1.061658           1.852868          -1.257909          -1.564006          -3.055411
hessian_block                6       9           0.061674           0.111488          -0.038507           1.871975           2.592811           3.381899           0.194967           0.024935          -0.394377
hessian_block                6      10          -4.379013          -4.059300          -7.602326          -3.626983          -5.063666          -8.280475          -4.782669          -5.657497          -9.840758
hessian_block                6      11           1.832153           2.104889           2.975681           0.555791           2.070253           2.856743          -0.126301           0.565710           1.130638
hessian_block                6      12           1.429811           1.218664           2.213993           0.697828           0.412100           1.144355           2.777801           2.814602           5.094501
hessian_block                7       7           5.987916           0.296416           0.995900           0.296416           6.150449          -1.419205           0.995900          -1.419205           7.918498
hessian_block                7       8          -0.567715           0.021355           0.183415          -0.316594          -0.268180           1.007334           0.941323          -0.795312           0.865361
hessian_block                7       9           0.376090           0.588077          -0.228851          -1.472582          -0.137026          -0.160158           0.326404          -0.451526           1.361817
hessian_block                7      10           1.585696          -1.013230          -0.515614           1.567470          -0.819654          -0.870975           1.165029          -1.312875          -0.229980
hessian_block                7      11          -2.663171           0.737545          -1.524400          -0.035770          -2.106125           3.077282          -1.691275           2.243485          -3.423593
hessian_block                7      12          -0.395029           0.148547           0.603593          -0.782577           0.596186          -0.627563          -1.734076           0.727161          -0.753900
hessian_block                8       8           5.191313           0.434269          -1.486604           0.434269           5.927770           1.004685          -1.486604           1.004685           7.889977
hessian_block                8       9           0.222212          -0.503273          -0.199799           0.934745           0.716487          -1.191606           0.082077           0.533829           1.026943
hessian_block                8      10          -1.039869          -1.064995           1.651604          -1.800865          -1.462068           1.887156          -1.662505          -1.172190           2.264643
hessian_block                8      11           0.931838           0.328656          -1.112603           1.183453           1.652992          -0.128953           0.440234          -0.509249          -1.124779
hessian_block                8      12          -0.326628           1.363856           1.177584           1.066719          -1.415670          -2.436193           2.408858          -1.190577          -4.477139
hessian_block                9       9           5.026018          -0.527506          -0.777345          -0.527506           7.637725          -1.437622          -0.777345          -1.437622           7.717077
hessian_block                9      10          -0.009583          -1.644171          -0.184854          -0.179093          -2.196724          -0.139307          -0.345740          -2.377093           0.344416
hessian_block                9      11          -0.188288           2.042927          -0.156926          -0.701713           1.554087           0.749476           0.403469           0.431276          -1.091428
hessian_block                9      12           0.126138           0.468012           0.632070           0.191801           0.205920          -0.533304          -0.022041           2.347584          -0.956424
hessian_block               10      10           8.720426           3.715224           5.001295           3.715224          10.316052           6.040487           5.001295           6.040487          12.128631
hessian_block               10      11          -2.015452          -2.000032          -1.779904          -1.177261          -3.072022          -2.066497          -0.195638          -0.948909          -1.164433
hessian_block               10      12          -1.686023          -1.398829          -1.581141          -1.084421          -0.638273          -0.595559          -3.085165          -2.834899          -3.550251
hessian_block               11      11           6.663656           1.250767           1.086657           1.250767           8.727629          -1.132128           1.086657          -1.132128           7.666255
hessian_block               11      12           0.772356           0.654790          -0.271215           0.776281          -0.623042           0.540174           2.259540           0.611566           0.958727
hessian_block               12      12           5.344475           0.268942           0.053826           0.268942           5.805235           2.042988           0.053826           2.042988           9.750382
hessian_block_lv             1       1          23.693971          -3.403883           5.308483          -3.403883          23.784580           2.729250           5.308483           2.729250           2.393005
hessian_block_lv_atom        1       1          -0.076323          -0.047091          -0.344150           0.010304           0.166560           0.534520           0.126369           0.141880           0.313871
hessian_block_lv_atom        1       2          -0.030125          -0.022970           0.573444           0.820377           0.798386           0.981050           0.443899           0.277041           0.492379
hessian_block_lv_atom        1       3           0.149205           0.226962           0.909422           0.064656           0.200813          -0.156003           0.376299           0.337136           0.685633
hessian_block_lv_atom        1       4           0.014487           0.051876          -0.041617           0.804657           0.750071           0.260561           0.211469           0.110555           0.121012
hessian_block_lv_atom        1       5          -0.067134          -0.160048          -0.193772           0.614578           0.796271           1.052469          -1.934765          -2.798313          -1.594204
hessian_block_lv_atom        1       6          -0.469730          -1.046592          -1.276699          -1.202926          -1.416482          -1.517566          -3.177099          -4.334947          -3.428090
hessian_block_lv_atom        1       7          -0.141620          -0.156450           0.728042          -0.868498          -1.057738          -0.710185           1.276216           2.217295           1.106342
hessian_block_lv_atom        1       8          -0.301271          -0.199846          -0.678205          -0.197893          -0.268108          -0.144089           1.953930           2.842678           1.919818
hessian_block_lv_atom        1       9           0.130322           0.231070          -0.186126          -1.151785          -1.301154          -1.248616           1.660322           2.613872           1.320870
hessian_block_lv_atom        1      10           0.577301           1.202465           1.545289           1.415659           1.452651           1.730327           2.906553           4.136798           2.911663
hessian_block_lv_atom        1      11           0.096868           0.062882          -0.878541          -0.221426           0.020636          -0.333782          -1.725408          -2.575912          -1.545373
hessian_block_lv_atom        1      12           0.118019          -0.142257          -0.157087          -0.087703          -0.141907          -0.448685          -2.117784          -2.968084          -2.303922
symmetry_n_params 39 3 36
symmetry_params a1 b2 c3 x0 x1 x2 x3 x4 x5 x6 x7 x8 x9 x10 x11 x12 x13 x14 x15 x16 x17 x18 x19 x20 x21 x22 x23 x24 x25 x26 x27 x28 x29 x30 x31 x32 x33 x34 x35
symmetry_lv a1 , 0 , 0 
symmetry_lv 0 , b2 , 0 
symmetry_lv 0 , 0 , c3
symmetry_frac x0 , x1 , x2
symmetry_frac x3 , x4 , x5
symmetry_frac x6 , x7 , x8
symmetry_frac x9 , x10 , x11
symmetry_frac x12 , x13 , x14
symmetry_frac x15 , x16 , x17
symmetry_frac x18 , x19 , x20
symmetry_frac x21 , x22 , x23
symmetry_frac x24 , x25 , x26
symmetry_frac x27 , x28 , x29
symmetry_frac x30 , x31 , x32
symmetry_frac x33 , x34 , x35
