# 
# This is the geometry file that corresponds to the current relaxation step.
# If you do not want this file to be written, set the "write_restart_geometry" flag to .false.
#  aims_uuid : 5E798E71-FF84-45B7-A71B-94A63C9E7CF7                                
# 
lattice_vector      5.69526265      0.00000000      0.00000000
lattice_vector      0.00000000      5.89258110      0.00000000
lattice_vector      0.00000000      0.00000000    101.32639872
atom_frac       0.71682468     -0.00269863      0.49985674 Se
atom_frac       0.60860278      0.61639903      0.49231411 Pd
atom_frac       0.00043342      0.49725080      0.49985589 Se
atom_frac       0.10856208      0.11644612      0.49231377 Pd
atom_frac       0.21688047      0.73551791      0.48478206 Se
atom_frac       0.50037607      0.23556867      0.48478289 Se
# 
# What follows is the current estimated Hessian matrix constructed by the BFGS algorithm.
# This is NOT the true Hessian matrix of the system.
# If you do not want this information here, switch it off using the "hessian_to_restart_geometry" keyword.
# 
trust_radius             0.1120682301
hessian_block                1       1           0.848430           0.003762           3.350772           0.003762           1.210263          -2.847573           3.350772          -2.847573         268.416669
hessian_block                1       2           0.005326          -0.151338          -0.730235          -0.166676          -0.604251          -4.377356           0.062653          -3.452799         -52.313231
hessian_block                1       3          -0.062858           0.029943          -1.895384           0.035540           0.250434          -2.037979           1.690587          -0.933632          75.977984
hessian_block                1       4          -0.346602          -0.065101           2.941639          -0.163990          -0.022047           0.440482           1.787793          -0.903691         -51.896657
hessian_block                1       5           0.045166           0.088562           1.930322           0.088221          -0.203940           1.872801          -1.714506           2.084323         -43.818616
hessian_block                1       6          -0.200462           0.094171          -5.597115           0.203144          -0.326489           6.949626          -5.177300           6.053373        -105.299343
hessian_block                2       2           1.251408           0.020654           5.022903           0.020654           1.419908           3.723104           5.022903           3.723104         228.697567
hessian_block                2       3          -0.381138           0.166627          -1.873692           0.289587          -0.265370           2.298951          -1.032880          -1.662691         -35.609633
hessian_block                2       4          -0.213024          -0.015441          -1.449223          -0.282817           0.044054          -0.632011          -1.615904           1.643033          71.261262
hessian_block                2       5          -0.417743          -0.088100          -1.701735           0.281557           0.025252           1.913024          -0.980273           1.704760         -52.276994
hessian_block                2       6           0.044171           0.082936          -0.060906          -0.157643          -0.315623          -3.850269          -0.663610          -1.030850         -68.692165
hessian_block                3       3           0.868719          -0.049922          -3.976868          -0.049922           1.407891          -3.019813          -3.976868          -3.019813         259.596287
hessian_block                3       4           0.002357          -0.121974           0.445762           0.188570          -0.625851          -3.379567           1.407620          -2.691493         -46.092503
hessian_block                3       5          -0.174893          -0.138962           4.969033          -0.280292          -0.196137           6.381622           4.694933           5.152427        -116.595968
hessian_block                3       6           0.036813          -0.014268          -2.095633          -0.054926          -0.266997           2.614080           1.643391           0.297906         -46.209361
hessian_block                4       4           1.193897           0.237612          -4.782172           0.237612           1.401147           4.522741          -4.782172           4.522741         211.010809
hessian_block                4       5           0.020896           0.156828           0.815417          -0.045243          -0.547483          -2.166169           0.185621          -2.375223         -43.751113
hessian_block                4       6          -0.368524          -0.136201           2.387246           0.010147           0.054150          -0.404421           2.658373           1.423578         -49.464992
hessian_block                5       5           0.949934          -0.050131          -4.058086          -0.050131           1.158569          -4.688398          -4.058086          -4.688398         264.396229
hessian_block                5       6          -0.134359           0.005888           1.872310           0.031804           0.067708          -1.877888          -1.954951          -3.312879          83.113269
hessian_block                6       6           0.911361          -0.032526           3.494098          -0.032526           1.091222          -3.431128           3.494098          -3.431128         277.619398
hessian_block_lv             1       1          18.095401           9.277215          -0.470058           9.277215          10.403303          -0.057383          -0.470058          -0.057383           0.071692
hessian_block_lv_atom        1       1          -0.107298           0.178207          -0.005146          -0.522533           0.152151          -0.026518           9.111662           8.852593           0.709543
hessian_block_lv_atom        1       2          -0.188663          -0.209930          -0.018829           0.064652          -0.223939           0.005074          -4.626538          -5.847449          -0.546979
hessian_block_lv_atom        1       3           0.155640          -0.167097           0.007611          -0.829773          -0.204823          -0.060981           7.830427           7.171796           0.556195
hessian_block_lv_atom        1       4           0.099914           0.193303           0.014759           0.206202           0.124217           0.020130          -1.857196          -4.318153          -0.277178
hessian_block_lv_atom        1       5          -0.062066           0.210145          -0.003118           0.387226          -0.102990           0.013930          -5.842629          -3.741914          -0.294447
hessian_block_lv_atom        1       6           0.102474          -0.204629           0.004722           0.694226           0.255383           0.048365          -4.615727          -2.116872          -0.147134
