# 
# This is the geometry file that corresponds to the current relaxation step.
# If you do not want this file to be written, set the "write_restart_geometry" flag to .false.
#  aims_uuid : 3D03BD6F-BD2C-4BC5-A1C2-6C42AD3CBD9E                                
# 
lattice_vector      3.71997328      0.00000000      0.00000000
lattice_vector     -1.85998664      3.22159136      0.00000000
lattice_vector      0.00000000      0.00000000    101.66532631
atom_frac       0.00059383      0.66720304      0.50128357 Se
atom_frac       0.33410387      0.33414409      0.47526578 Se
atom_frac       0.66736138      0.00071196      0.48827602 Pt
# 
# What follows is the current estimated Hessian matrix constructed by the BFGS algorithm.
# This is NOT the true Hessian matrix of the system.
# If you do not want this information here, switch it off using the "hessian_to_restart_geometry" keyword.
# 
trust_radius             0.0484061235
hessian_block                1       1           1.129330          -0.723265          -6.185594          -0.723265           1.037615           2.525229          -6.185594           2.525229        1108.994231
hessian_block                1       2           0.005594           0.098228           2.595893           0.107437           0.030308          -0.139049          -0.885725           1.395110         -20.888373
hessian_block                1       3          -0.890918           0.503033           3.589701           0.493824          -0.823916          -2.386180           7.071320          -3.920340        -908.952921
hessian_block                2       2           1.085025          -0.605278           1.122929          -0.605278           1.062542          -1.494376           1.122929          -1.494376         920.567764
hessian_block                2       3          -0.846612           0.375838          -0.237204           0.385047          -0.848842           0.099265          -3.718822           1.633425        -720.526454
hessian_block                3       3           1.981537          -1.000875          -3.352497          -1.000875           1.916765           2.286915          -3.352497           2.286915        1808.632312
hessian_block_lv             1       1          18.334609           0.104564           0.000000           0.104564           0.004530           0.000000           0.000000           0.000000           0.000000
hessian_block_lv_atom        1       1          -0.547160           0.006734           0.000000           0.346439          -0.008428           0.000000          75.969281           0.965137           0.000000
hessian_block_lv_atom        1       2           0.072939          -0.002841           0.000000           0.047915           0.006320           0.000000         -53.254967          -1.370569           0.000000
hessian_block_lv_atom        1       3           0.474221          -0.003893           0.000000          -0.394354           0.002108           0.000000         -22.714313           0.405432           0.000000
