# 
# This is the geometry file that corresponds to the current relaxation step.
# If you do not want this file to be written, set the "write_restart_geometry" flag to .false.
#  aims_uuid : 745CA874-2E81-404B-A95F-59C18B2C097D                                
# 
lattice_vector      3.77931271      0.00000000      0.00000000
lattice_vector     -1.88965636      3.27298082      0.00000000
lattice_vector      0.00000000      0.00000000      4.95915916
atom_frac      -0.00029394     -0.00031397     -0.00024495 Pt
atom_frac       0.33321876      0.66622062      0.25918355 Se
atom_frac       0.66630425      0.33332241      0.74029046 Se
# 
# What follows is the current estimated Hessian matrix constructed by the BFGS algorithm.
# This is NOT the true Hessian matrix of the system.
# If you do not want this information here, switch it off using the "hessian_to_restart_geometry" keyword.
# 
trust_radius             0.1000000015
hessian_block                1       1           9.175683          -0.190944           0.728607          -0.190944           7.066863          -0.391954           0.728607          -0.391954          24.185850
hessian_block                1       2          -3.604113          -0.378638          -0.559228          -0.015811          -2.361275           0.711835           0.063694           0.376873         -10.212494
hessian_block                1       3          -3.708487          -0.361959          -0.169378          -0.724787          -2.842505          -0.319881          -0.792301           0.015081         -10.900345
hessian_block                2       2           5.402559          -1.357622           0.717640          -1.357622           5.571775          -1.278158           0.717640          -1.278158          14.969328
hessian_block                2       3           0.064637           0.441891          -0.781334           0.804718          -1.347417           0.901285          -0.158411           0.566323          -1.683823
hessian_block                3       3           5.506934          -1.011473           0.950712          -1.011473           6.053005          -0.581404           0.950712          -0.581404          15.657179
hessian_block_lv             1       1          35.604225           5.661347           0.000000           5.661347           1.958752           0.000000           0.000000           0.000000           0.000000
hessian_block_lv_atom        1       1           0.418929           0.198050           0.000000           0.185125           0.111322           0.000000           0.438180           0.119759           0.000000
hessian_block_lv_atom        1       2           1.488264           0.221905           0.000000           2.092158           0.161599           0.000000           2.867544           2.480941           0.000000
hessian_block_lv_atom        1       3          -1.907193          -0.419955           0.000000          -2.277283          -0.272922           0.000000          -3.305724          -2.600700           0.000000
