#=======================================================
# FHI-aims file: ./geometry.in
# Created using the Atomic Simulation Environment (ASE)
# Thu Jan  9 17:22:59 2020
#=======================================================
lattice_vector 3.1903157300000000 0.0000000000000000 0.0000000000000000 
lattice_vector -1.5951578649999993 2.7628944682730965 0.0000000000000000 
lattice_vector 0.0000000000000000 0.0000000000000000 14.8790043000000001 
atom_frac 0.3333330000000000 0.6666670000000000 0.2500000000000000 Mo
atom_frac 0.6666670000000000 0.3333330000000000 0.7500000000000000 Mo
atom_frac 0.3333330000000000 0.6666670000000000 0.8551740000000000 S
atom_frac 0.6666670000000000 0.3333330000000000 0.1448260000000000 S
atom_frac 0.6666660000000000 0.3333330000000000 0.3551739999999999 S
atom_frac 0.3333340000000001 0.6666670000000000 0.6448260000000000 S
