#=======================================================
# FHI-aims file: ./geometry.in
# Created using the Atomic Simulation Environment (ASE)
# Tue Nov 10 17:37:33 2020
#=======================================================
lattice_vector 2.4595568999999999 0.0000000000000000 0.0000000000000000 
lattice_vector -0.8198522998182515 2.3188924836698086 0.0000000000000000 
lattice_vector -0.8198522998182515 -1.1594462414493576 2.0082197997254414 
atom_frac 0.0000000000000000 0.0000000000000000 0.0000000000000000 Fe
