# 
# This is the geometry file that corresponds to the current relaxation step.
# If you do not want this file to be written, set the "write_restart_geometry" flag to .false.
#  aims_uuid : 445EB6C2-8161-4D52-AC49-C1C6D915A637                                
# 
lattice_vector      3.78703888      0.00000000      0.00000000
lattice_vector     -1.89351944      3.27967188      0.00000000
lattice_vector      0.00000000      0.00000000      4.96039449
atom_frac      -0.00013723     -0.00008477     -0.00003909 Pt
atom_frac       0.33319611      0.66655005      0.25686623 Se
atom_frac       0.66666527      0.33325887      0.74289700 Se
# 
# What follows is the current estimated Hessian matrix constructed by the BFGS algorithm.
# This is NOT the true Hessian matrix of the system.
# If you do not want this information here, switch it off using the "hessian_to_restart_geometry" keyword.
# 
trust_radius             0.0460700019
hessian_block                1       1          11.522834          -5.209957          -0.211546          -5.209957          11.398165          -0.425296          -0.211546          -0.425296          25.853126
hessian_block                1       2          -4.693499           2.257825          -0.465529           1.926959          -4.750878           0.157066           0.023774           0.224489         -10.735630
hessian_block                1       3          -4.966252           2.020590           0.677076           2.351457          -4.784204           0.268230           0.187772           0.200807         -12.044485
hessian_block                2       2           7.026710          -3.179310           0.300793          -3.179310           6.847330          -0.414925           0.300793          -0.414925          14.602337
hessian_block                2       3          -0.470128           0.320810          -0.324567          -0.010057          -0.233369           0.190436           0.164736           0.257860          -0.793696
hessian_block                3       3           7.299463          -3.272942          -0.352509          -3.272942           6.880656          -0.458666          -0.352509          -0.458666          15.911192
hessian_block_lv             1       1          22.285241           5.249657           0.000000           5.249657           1.683485           0.000000           0.000000           0.000000           0.000000
hessian_block_lv_atom        1       1          -0.542510          -0.013139           0.000000           0.047698          -0.106920           0.000000           3.863389           0.987181           0.000000
hessian_block_lv_atom        1       2          -0.195338          -0.077215           0.000000          -0.005010           0.080712           0.000000           5.246736           1.711794           0.000000
hessian_block_lv_atom        1       3           0.737848           0.090354           0.000000          -0.042688           0.026208           0.000000          -9.110124          -2.698975           0.000000
