# 
# This is the geometry file that corresponds to the current relaxation step.
# If you do not want this file to be written, set the "write_restart_geometry" flag to .false.
#  aims_uuid : A3AA2203-268C-430A-AA72-9E6DA8D257D5                                
# 
lattice_vector      3.71978672      0.00000000      0.00000000
lattice_vector     -1.85989336      3.22142980      0.00000000
lattice_vector      0.00000000      0.00000000    101.73579109
atom_frac       0.00085830      0.66757051      0.50149582 Se
atom_frac       0.33419918      0.33419353      0.47548690 Se
atom_frac       0.66744596      0.00073941      0.48849222 Pt
# 
# What follows is the current estimated Hessian matrix constructed by the BFGS algorithm.
# This is NOT the true Hessian matrix of the system.
# If you do not want this information here, switch it off using the "hessian_to_restart_geometry" keyword.
# 
trust_radius             0.0108457768
hessian_block                1       1           1.216174          -0.565731          -2.353145          -0.565731           1.100369           2.788080          -2.353145           2.788080        1034.619730
hessian_block                1       2           0.112876           0.194054           4.049135           0.242651           0.090024          -1.939164          -5.766578          -1.859198         -22.957167
hessian_block                1       3          -1.085043           0.249673          -1.695990           0.201076          -0.946386          -0.848916           8.119724          -0.928881        -832.509625
hessian_block                2       2           1.237287          -0.645993          -0.345114          -0.645993           1.126921          -4.807329          -0.345114          -4.807329        1077.607777
hessian_block                2       3          -1.106156           0.281339           6.111692           0.329936          -0.972938           6.666527          -3.704021           6.746493        -875.497672
hessian_block                3       3           2.435206          -0.653016          -4.415702          -0.653016           2.163331          -5.817611          -4.415702          -5.817611        1887.160234
hessian_block_lv             1       1          17.451595           0.081244           0.000000           0.081244           0.006470           0.000000           0.000000           0.000000           0.000000
hessian_block_lv_atom        1       1          -0.511147           0.022289           0.000000           0.112305           0.006522           0.000000          63.057682           1.126954           0.000000
hessian_block_lv_atom        1       2          -0.015282           0.003553           0.000000          -0.380289           0.020555           0.000000         -44.637101          -1.960606           0.000000
hessian_block_lv_atom        1       3           0.526428          -0.025842           0.000000           0.267984          -0.027077           0.000000         -18.420580           0.833652           0.000000
