# 
# This is the geometry file that corresponds to the current relaxation step.
# If you do not want this file to be written, set the "write_restart_geometry" flag to .false.
#  aims_uuid : C46840BD-8454-4624-A1E5-0FB45DDE29DB                                
# 
lattice_vector      3.71984622      0.00000000      0.00000000
lattice_vector     -1.85992311      3.22148132      0.00000000
lattice_vector      0.00000000      0.00000000    101.65369547
atom_frac       0.00076509      0.66736669      0.50133235 Se
atom_frac       0.33402811      0.33406886      0.47530855 Se
atom_frac       0.66736023      0.00071789      0.48832239 Pt
# 
# What follows is the current estimated Hessian matrix constructed by the BFGS algorithm.
# This is NOT the true Hessian matrix of the system.
# If you do not want this information here, switch it off using the "hessian_to_restart_geometry" keyword.
# 
trust_radius             0.0501604410
hessian_block                1       1           1.167879          -0.682431          -5.389585          -0.682431           1.049327           3.806655          -5.389585           3.806655        1109.779790
hessian_block                1       2           0.031278           0.097716           1.467026           0.105673           0.074933          -0.611498          -1.988514           0.787491          -8.772479
hessian_block                1       3          -0.955149           0.462711           3.922559           0.454754          -0.880253          -3.195157           7.378099          -4.594146        -921.854373
hessian_block                2       2           1.070904          -0.646024           1.548752          -0.646024           0.979596          -0.837427           1.548752          -0.837427         933.603010
hessian_block                2       3          -0.858174           0.418347           0.439762           0.426304          -0.810522           0.049935          -3.015778           1.448925        -745.677594
hessian_block                3       3           2.057331          -1.003061          -4.362321          -1.003061           1.934782           3.145221          -4.362321           3.145221        1846.684905
hessian_block_lv             1       1          18.377992           0.096116           0.000000           0.096116           0.004873           0.000000           0.000000           0.000000           0.000000
hessian_block_lv_atom        1       1          -0.599353           0.011237           0.000000           0.447813          -0.006836           0.000000          74.913120           0.940169           0.000000
hessian_block_lv_atom        1       2          -0.046860          -0.003500           0.000000          -0.014800           0.005010           0.000000         -51.385306          -1.449011           0.000000
hessian_block_lv_atom        1       3           0.646213          -0.007736           0.000000          -0.433012           0.001826           0.000000         -23.527815           0.508843           0.000000
