# 
# This is the geometry file that corresponds to the current relaxation step.
# If you do not want this file to be written, set the "write_restart_geometry" flag to .false.
#  aims_uuid : 98FE542F-D0E0-46E5-A70D-FD4ED88588EA                                
# 
lattice_vector      3.78166848      0.00000000      0.00000000
lattice_vector     -1.89083424      3.27502097      0.00000000
lattice_vector      0.00000000      0.00000000      4.94313278
atom_frac      -0.00033858     -0.00033325     -0.00023084 Pt
atom_frac       0.33317974      0.66624132      0.25965050 Se
atom_frac       0.66641947      0.33335255      0.73984096 Se
# 
# What follows is the current estimated Hessian matrix constructed by the BFGS algorithm.
# This is NOT the true Hessian matrix of the system.
# If you do not want this information here, switch it off using the "hessian_to_restart_geometry" keyword.
# 
trust_radius             0.0498161583
hessian_block                1       1           9.098143          -0.154727           0.455494          -0.154727           7.151731          -0.604308           0.455494          -0.604308          24.372915
hessian_block                1       2          -3.282530          -0.187165          -0.440237          -0.205510          -2.524269           0.684061           0.626652           0.798458         -10.628922
hessian_block                1       3          -3.952530          -0.589650          -0.015257          -0.571305          -2.764379          -0.079753          -1.082146          -0.194150         -10.670982
hessian_block                2       2           5.323393          -1.368193           0.723338          -1.368193           5.801303          -1.407682           0.723338          -1.407682          16.413087
hessian_block                2       3          -0.177780           0.642161          -1.349990           0.623816          -1.413951           0.609224          -0.283101           0.723621          -2.711155
hessian_block                3       3           5.993393          -0.984053           1.365247          -0.984053           6.041413          -0.529471           1.365247          -0.529471          16.455148
hessian_block_lv             1       1          34.531513           5.999797           0.000000           5.999797           2.214658           0.000000           0.000000           0.000000           0.000000
hessian_block_lv_atom        1       1           0.622267           0.432080           0.000000           0.359011           0.272126           0.000000           0.243462          -0.015676           0.000000
hessian_block_lv_atom        1       2           1.641027           0.244040           0.000000           2.283298           0.205135           0.000000           3.522442           2.892537           0.000000
hessian_block_lv_atom        1       3          -2.263294          -0.676120           0.000000          -2.642309          -0.477261           0.000000          -3.765904          -2.876861           0.000000
