# 
# This is the geometry file that corresponds to the current relaxation step.
# If you do not want this file to be written, set the "write_restart_geometry" flag to .false.
#  aims_uuid : 7AA442FD-1101-4020-AC1F-84F41AE77ACD                                
# 
lattice_vector      5.69521312      0.00000000      0.00000000
lattice_vector      0.00000000      5.89256583      0.00000000
lattice_vector      0.00000000      0.00000000    101.32587299
atom_frac       0.71682470     -0.00269716      0.49985714 Se
atom_frac       0.60860130      0.61640083      0.49231409 Pd
atom_frac       0.00043293      0.49724821      0.49985621 Se
atom_frac       0.10856449      0.11644632      0.49231372 Pd
atom_frac       0.21687585      0.73551592      0.48478204 Se
atom_frac       0.50038066      0.23557021      0.48478287 Se
# 
# What follows is the current estimated Hessian matrix constructed by the BFGS algorithm.
# This is NOT the true Hessian matrix of the system.
# If you do not want this information here, switch it off using the "hessian_to_restart_geometry" keyword.
# 
trust_radius             0.1120688412
hessian_block                1       1           0.847481           0.003303           3.349719           0.003303           1.210685          -2.861651           3.349719          -2.861651         268.310397
hessian_block                1       2           0.004410          -0.151537          -0.743039          -0.166735          -0.606786          -4.337363           0.031747          -3.449438         -52.603165
hessian_block                1       3          -0.062061           0.030825          -1.904347           0.032212           0.249791          -2.080465           1.681126          -0.945787          75.780270
hessian_block                1       4          -0.345190          -0.065559           2.977569          -0.162940          -0.022359           0.472543           1.774915          -0.898835         -52.120443
hessian_block                1       5           0.044265           0.088792           1.907969           0.088193          -0.203010           1.847318          -1.695140           2.089501         -43.481671
hessian_block                1       6          -0.199904           0.094176          -5.587871           0.205966          -0.324349           6.959618          -5.142368           6.066210        -104.818581
hessian_block                2       2           1.250432           0.018276           5.019006           0.018276           1.428074           3.663946           5.019006           3.663946         228.736097
hessian_block                2       3          -0.379067           0.165083          -1.826615           0.288587          -0.271078           2.275613          -1.045249          -1.653773         -35.876872
hessian_block                2       4          -0.214341          -0.010056          -1.476126          -0.282332           0.048545          -0.652386          -1.601400           1.612423          71.689578
hessian_block                2       5          -0.416974          -0.090672          -1.690119           0.282687           0.021553           1.955622          -0.974700           1.720034         -52.324670
hessian_block                2       6           0.044540           0.084103          -0.057894          -0.155682          -0.316337          -3.793358          -0.654618          -1.005268         -68.554161
hessian_block                3       3           0.868656          -0.044452          -3.967586          -0.044452           1.403633          -3.062092          -3.967586          -3.062092         259.348262
hessian_block                3       4          -0.001417          -0.124937           0.461803           0.185914          -0.626089          -3.357471           1.431105          -2.668581         -46.186152
hessian_block                3       5          -0.173181          -0.138530           4.955722          -0.279027          -0.192390           6.375837           4.671050           5.183969        -116.276459
hessian_block                3       6           0.036070          -0.012881          -2.085816          -0.058343          -0.259897           2.643287           1.596393           0.351556         -45.722242
hessian_block                4       4           1.200001           0.240233          -4.818994           0.240233           1.401786           4.490451          -4.818994           4.490451         211.489539
hessian_block                4       5           0.018645           0.155469           0.829534          -0.048890          -0.549724          -2.134189           0.185998          -2.375116         -44.015412
hessian_block                4       6          -0.368697          -0.136345           2.384840           0.009208           0.051812          -0.401269           2.669750           1.421979         -49.790303
hessian_block                5       5           0.950411          -0.048361          -4.053931          -0.048361           1.160632          -4.703511          -4.053931          -4.703511         264.312387
hessian_block                5       6          -0.134165           0.005397           1.866722           0.033301           0.066910          -1.914877          -1.949175          -3.341077          82.852632
hessian_block                6       6           0.911157          -0.034450           3.480018          -0.034450           1.085832          -3.493400           3.480018          -3.493400         277.099463
hessian_block_lv             1       1          18.035740           9.226893          -0.473856           9.226893          10.365621          -0.061644          -0.473856          -0.061644           0.071381
hessian_block_lv_atom        1       1          -0.103700           0.183503          -0.004587          -0.519627           0.157897          -0.026148           9.222032           9.005954           0.723445
hessian_block_lv_atom        1       2          -0.189745          -0.210575          -0.018830           0.067280          -0.223355           0.005350          -4.644089          -5.931671          -0.550013
hessian_block_lv_atom        1       3           0.149556          -0.177592           0.006651          -0.826531          -0.202971          -0.060551           7.917232           7.296061           0.567753
hessian_block_lv_atom        1       4           0.105599           0.204576           0.015535           0.206211           0.123048           0.020012          -1.921516          -4.477334          -0.287632
hessian_block_lv_atom        1       5          -0.063632           0.206195          -0.003330           0.382880          -0.108894           0.013454          -5.891554          -3.761438          -0.299603
hessian_block_lv_atom        1       6           0.101921          -0.206108           0.004561           0.689786           0.254276           0.047882          -4.682105          -2.131572          -0.153950
