# 
# This is the geometry file that corresponds to the current relaxation step.
# If you do not want this file to be written, set the "write_restart_geometry" flag to .false.
#  aims_uuid : E7F39C8A-5FA5-4413-A6C6-04455D746701                                
# 
lattice_vector      3.29019570      0.00000000      0.00000000
lattice_vector     -1.64509785      2.84939306      0.00000000
lattice_vector      0.00000000      0.00000000    102.16349687
atom_frac      -0.00019990     -0.00006572      0.50011553 Se
atom_frac       0.33342580      0.66679723      0.48360210 W
atom_frac       0.00031964      0.00035955      0.46708801 Se
# 
# What follows is the current estimated Hessian matrix constructed by the BFGS algorithm.
# This is NOT the true Hessian matrix of the system.
# If you do not want this information here, switch it off using the "hessian_to_restart_geometry" keyword.
# 
trust_radius             0.2000000030
hessian_block                1       1           1.206985          -0.785931          -1.416951          -0.785931           1.102759          -2.687558          -1.416951          -2.687558        2364.086367
hessian_block                1       2          -1.424916           0.819204           6.651643           0.836569          -1.172340           0.526228           8.460737          -4.244179       -1724.132835
hessian_block                1       3           0.438436          -0.143526          -5.234692          -0.160891           0.290087           2.161331          -7.043786           6.931737        -420.577629
hessian_block                2       2           3.011353          -1.632661         -15.260895          -1.632661           2.494694           9.517398         -15.260895           9.517398        3328.263288
hessian_block                2       3          -1.365931           0.685839           6.800159           0.703204          -1.101848          -5.273219           8.609253         -10.043625       -1384.754550
hessian_block                3       3           1.148000          -0.652565          -1.565467          -0.652565           1.032267           3.111888          -1.565467           3.111888        2024.708082
hessian_block_lv             1       1          24.620979           0.252654           0.000000           0.252654           0.014088           0.000000           0.000000           0.000000           0.000000
hessian_block_lv_atom        1       1          -0.398081           0.002798           0.000000           0.184765          -0.012277           0.000000          92.603169           4.633925           0.000000
hessian_block_lv_atom        1       2           0.919522           0.009570           0.000000          -0.541644           0.010171           0.000000         -30.178666          -0.751937           0.000000
hessian_block_lv_atom        1       3          -0.521441          -0.012367           0.000000           0.356879           0.002106           0.000000         -62.424502          -3.881989           0.000000
