# 
# This is the geometry file that corresponds to the current relaxation step.
# If you do not want this file to be written, set the "write_restart_geometry" flag to .false.
#  aims_uuid : 680ADB2D-5AF5-4A61-A914-09E5694806F8                                
# 
lattice_vector      3.28811449      0.00000000      0.00000000
lattice_vector     -1.64405725      2.84759068      0.00000000
lattice_vector      0.00000000      0.00000000    102.68655004
atom_frac       0.00002546      0.00014768      0.49993628 Se
atom_frac       0.33341262      0.66674540      0.48349730 W
atom_frac       0.00003435      0.00005178      0.46705406 Se
# 
# What follows is the current estimated Hessian matrix constructed by the BFGS algorithm.
# This is NOT the true Hessian matrix of the system.
# If you do not want this information here, switch it off using the "hessian_to_restart_geometry" keyword.
# 
trust_radius             0.0500000007
hessian_block                1       1           1.197368          -0.723482           1.364699          -0.723482           1.295461          -0.020730           1.364699          -0.020730        2232.119238
hessian_block                1       2          -1.130290           0.713008          -4.895187           0.725515          -1.273710          -1.752022          -5.177726           2.775827       -2227.516409
hessian_block                1       3           0.153428          -0.099779           3.530489          -0.112286           0.198755           1.772752           3.813027          -2.755097         214.773075
hessian_block                2       2           2.395098          -1.357126           8.092454          -1.357126           2.550659           1.519950           8.092454           1.519950        4705.726956
hessian_block                2       3          -1.044302           0.521359          -2.914728           0.533865          -1.056443          -4.295777          -3.197267           0.232072       -2258.834643
hessian_block                3       3           1.111381          -0.531832          -0.615760          -0.531832           1.078194           2.523025          -0.615760           2.523025        2263.437471
hessian_block_lv             1       1          25.798743           0.163386           0.000000           0.163386           0.011064           0.000000           0.000000           0.000000           0.000000
hessian_block_lv_atom        1       1          -0.629924          -0.004505           0.000000           0.769301           0.003649           0.000000         107.706470           2.928460           0.000000
hessian_block_lv_atom        1       2          -0.123549          -0.002214           0.000000          -0.622935          -0.000566           0.000000         -90.109548           0.742578           0.000000
hessian_block_lv_atom        1       3           0.753473           0.006719           0.000000          -0.146367          -0.003083           0.000000         -17.596922          -3.671038           0.000000
