#=======================================================
# FHI-aims file: ./geometry.in
# Created using the Atomic Simulation Environment (ASE)
# Thu Mar 19 17:13:22 2020
#=======================================================
lattice_vector 2.4599999985668495 0.0000000000000000 0.0000000000000000 
lattice_vector -1.2299999992834247 2.1304224920685741 0.0000000000000000 
lattice_vector 0.0000000000000000 0.0000000000000000 100.0000000000000000 
atom_frac 0.3333333333333332 0.0000000000000000 0.5000000000000000 C
atom_frac 0.0000000000000000 0.3333333333333334 0.5000000000000000 C
