# 
# This is the geometry file that corresponds to the current relaxation step.
# If you do not want this file to be written, set the "write_restart_geometry" flag to .false.
#  aims_uuid : 46A9E3C0-344E-4944-A53A-6311004CB7FD                                
# 
lattice_vector      3.78176308      0.00000000      0.00000000
lattice_vector     -1.89088154      3.27510290      0.00000000
lattice_vector      0.00000000      0.00000000      4.93666437
atom_frac      -0.00036381     -0.00033372     -0.00021489 Pt
atom_frac       0.33322347      0.66625875      0.26002374 Se
atom_frac       0.66644177      0.33337639      0.73949258 Se
# 
# What follows is the current estimated Hessian matrix constructed by the BFGS algorithm.
# This is NOT the true Hessian matrix of the system.
# If you do not want this information here, switch it off using the "hessian_to_restart_geometry" keyword.
# 
trust_radius             0.0497485498
hessian_block                1       1          10.324374          -0.101724           0.415887          -0.101724           6.767508          -0.472912           0.415887          -0.472912          23.685997
hessian_block                1       2          -3.865908          -0.278323          -0.518973          -0.049655          -2.276617           0.696830           0.672523           0.481656         -10.020481
hessian_block                1       3          -4.595383          -0.551494           0.103086          -0.780163          -2.627808          -0.223918          -1.088409          -0.008745         -10.592505
hessian_block                2       2           5.386700          -1.264267           0.809015          -1.264267           5.405277          -1.421236           0.809015          -1.421236          14.819752
hessian_block                2       3           0.342291           0.382381          -1.481537           0.611049          -1.265577           0.939579          -0.290041           0.724406          -1.726260
hessian_block                3       3           6.116175          -0.762428           1.378451          -0.762428           5.756468          -0.715662           1.378451          -0.715662          15.391776
hessian_block_lv             1       1          36.207620           5.802846           0.000000           5.802846           2.023848           0.000000           0.000000           0.000000           0.000000
hessian_block_lv_atom        1       1           0.663663           0.528004           0.000000           0.194328           0.196084           0.000000           0.472796           0.103220           0.000000
hessian_block_lv_atom        1       2           1.455211           0.199199           0.000000           1.761408           0.068313           0.000000           2.821128           2.543436           0.000000
hessian_block_lv_atom        1       3          -2.118873          -0.727204           0.000000          -1.955736          -0.264397           0.000000          -3.293924          -2.646657           0.000000
