#=======================================================
# FHI-aims file: ./geometry.in
# Created using the Atomic Simulation Environment (ASE)
# Thu Dec  3 13:18:03 2020
#=======================================================
lattice_vector 0.0000399705400000 5.4335701187119998 5.4335701188399996 
lattice_vector 5.4335699395720001 0.0000399710300000 5.4335701183499996 
lattice_vector 5.4335699396960004 5.4335701183460001 0.0000399709060000 
atom_frac 0.0013014487113872 0.0000000818980000 0.0000000819240000 Si
atom_frac 0.5000000819015000 0.0000000818980001 0.0000000819239999 Si
atom_frac 0.0000000819015000 0.5000000818980000 0.0000000819240001 Si
atom_frac 0.5000000819015000 0.5000000818980000 0.0000000819240000 Si
atom_frac 0.0000000819014999 0.0000000818980000 0.5000000819240000 Si
atom_frac 0.5000000819014999 0.0000000818980001 0.5000000819240000 Si
atom_frac 0.0000000819015000 0.5000000818979999 0.5000000819240001 Si
atom_frac 0.5000000819014999 0.5000000818980002 0.5000000819240001 Si
atom_frac 0.1249999180985000 0.1249999181019999 0.1249999180765001 Si
atom_frac 0.6249999180985002 0.1249999181019999 0.1249999180765002 Si
atom_frac 0.1249999180985001 0.6249999181019998 0.1249999180765002 Si
atom_frac 0.6249999180985000 0.6249999181019998 0.1249999180765002 Si
atom_frac 0.1249999180985000 0.1249999181019999 0.6249999180765001 Si
atom_frac 0.6249999180985000 0.1249999181019999 0.6249999180765002 Si
atom_frac 0.1249999180984999 0.6249999181020001 0.6249999180765002 Si
atom_frac 0.6249999180984998 0.6249999181020000 0.6249999180765002 Si
