# 
# This is the geometry file that corresponds to the current relaxation step.
# If you do not want this file to be written, set the "write_restart_geometry" flag to .false.
#  aims_uuid : 09831C20-B35C-4554-AF6D-F7E6AD3AA86C                                
# 
lattice_vector      5.85158028      0.00000000      0.00000000
lattice_vector      0.00000000      5.95772156      0.00000000
lattice_vector      0.00000000      0.00000000      7.44723354
atom_frac       0.50226023      0.00171272      0.00159910 Pd
atom_frac       0.00170654      0.00171741      0.50242529 Pd
atom_frac       0.00176806      0.50227638      0.00162421 Pd
atom_frac       0.50232389      0.50228258      0.50239896 Pd
atom_frac       0.61410877      0.11980719      0.40423381 Se
atom_frac       0.89104688      0.88480131      0.90469338 Se
atom_frac       0.11354429      0.38424739      0.60045225 Se
atom_frac       0.39045334      0.62035990      0.09978728 Se
atom_frac       0.39048467      0.88481341      0.60045512 Se
atom_frac       0.11356979      0.11981006      0.09979802 Se
atom_frac       0.89103605      0.62035087      0.40423602 Se
atom_frac       0.61410711      0.38423043      0.90470619 Se
# 
# What follows is the current estimated Hessian matrix constructed by the BFGS algorithm.
# This is NOT the true Hessian matrix of the system.
# If you do not want this information here, switch it off using the "hessian_to_restart_geometry" keyword.
# 
trust_radius             0.0122101567
hessian_block                1       1           6.025204          -0.210091          -2.317360          -0.210091           6.926035          -0.850232          -2.317360          -0.850232           4.953554
hessian_block                1       2          -0.301858           1.131850           0.356755           0.105571           1.076680           0.194797          -0.123271           0.459914           0.109779
hessian_block                1       3          -0.408993           1.568706           0.471162          -0.020756          -0.395253          -0.042017          -0.400230           0.752901           0.314528
hessian_block                1       4           0.493195           0.327533          -0.031154           0.211149          -0.410493          -0.214976           0.087159           0.064197          -0.019344
hessian_block                1       5           0.120209          -1.006029          -0.454298          -0.669302           0.775585           0.536668          -0.264083           0.169590           0.324066
hessian_block                1       6          -1.375304          -0.765695           0.351165           0.792541          -1.348234          -0.536167           1.841314          -1.759136          -0.883377
hessian_block                1       7          -0.564702           0.709684           0.454021           0.140170           0.292363           0.191800           0.165833          -0.385557          -0.247399
hessian_block                1       8          -0.074088          -1.059276           0.134728          -0.255076          -2.277823           0.633599          -0.117540           1.122673          -0.389919
hessian_block                1       9          -0.132829           0.046881           0.194887          -0.111603          -1.007396          -0.379330           0.025835          -0.468817          -0.239094
hessian_block                1      10          -2.678096           1.736205           1.355827          -0.263844           0.736533           0.013224           0.371301           0.705010          -0.345937
hessian_block                1      11           0.388391          -1.211949          -0.527175           0.324523          -0.719873          -0.331139           0.032406           0.331297           0.332658
hessian_block                1      12           0.074781          -1.267819           0.011442          -0.043283          -2.001099           0.783775           0.698638          -0.141841          -0.807650
hessian_block                2       2           6.875652           1.037080           2.695692           1.037080           7.624687           2.054412           2.695692           2.054412           5.191265
hessian_block                2       3           1.985956           1.741043           0.933658          -0.693974          -0.458373          -0.249018           0.867747           0.702317           0.422392
hessian_block                2       4           0.320566           0.608067           0.149554          -0.711642           0.213333           0.109324           0.033388           0.362168           0.149897
hessian_block                2       5          -2.697123          -0.327381          -1.137818           1.197098           0.390559           0.554068          -0.596218          -0.076426          -0.686390
hessian_block                2       6          -1.422748          -1.418910          -0.740741          -1.158662          -1.969586          -1.040390          -1.663670          -2.032892          -1.405415
hessian_block                2       7           0.551841          -0.058930          -0.010118          -0.328342          -1.890202          -0.997360          -0.694288          -1.354804          -0.614760
hessian_block                2       8          -0.757063          -0.910976          -0.482945          -0.149512          -0.526148          -0.269554           0.337955           0.381415           0.383318
hessian_block                2       9          -2.031082           0.339656          -0.983502          -0.067721          -1.667842          -0.260335          -1.477473          -0.168895          -0.509629
hessian_block                2      10           1.477345           1.129348           0.788045           1.201320           1.742561           1.192482           1.140575           1.778719           1.229208
hessian_block                2      11          -1.459817          -1.591436          -0.714473          -1.125165          -3.029243          -1.468293           0.035908          -0.846159          -0.609938
hessian_block                2      12          -0.975762          -0.653136          -0.374081          -0.332331           0.140597          -0.085249          -1.036370          -0.994652          -0.557861
hessian_block                3       3           8.062218          -0.771941           3.337244          -0.771941           6.306323          -1.437098           3.337244          -1.437098           5.432770
hessian_block                3       4           0.431816          -0.274317           0.021553          -0.641667           0.401635          -0.265451           0.142743          -0.045342           0.033988
hessian_block                3       5          -1.319585           0.262625          -0.776684           0.965822           0.065588           0.869269           0.180162           0.029389           0.285035
hessian_block                3       6          -2.225669           0.842237          -1.358077          -1.444897          -1.606596          -0.114882          -2.984835           1.088790          -2.000400
hessian_block                3       7           0.908947          -0.147027           0.695711           0.138485          -0.093288           0.133452          -0.727963           0.082056          -0.468459
hessian_block                3       8          -2.825796          -0.148074          -1.258898          -1.006603          -0.399391          -0.720967          -0.310958          -0.331113          -0.145064
hessian_block                3       9          -0.307118           0.375173           0.129556          -1.086337           0.040438          -0.668123          -0.846463           0.332181          -0.358733
hessian_block                3      10           2.001313           0.223341           1.064439           2.545704          -2.200222           2.008863           1.757808           0.591058           0.510264
hessian_block                3      11          -1.704049           0.482998          -0.935895          -1.116999           0.048723          -0.773778           0.320411           0.002779           0.295500
hessian_block                3      12          -3.033126          -0.130287          -1.386465          -0.891316          -0.062559          -0.486503          -2.272967          -0.021665          -1.219957
hessian_block                4       4           5.934708           0.038346          -2.001840           0.038346           6.796366           1.458311          -2.001840           1.458311           4.869038
hessian_block                4       5          -0.512346           0.940426           0.278709           0.260320          -2.052144          -0.934443           0.017511          -1.311587          -0.674849
hessian_block                4       6          -0.195815           0.211117          -0.106697          -0.311794          -0.450401          -0.397777           0.188396          -0.296914          -0.349734
hessian_block                4       7          -1.889865          -0.938184           0.748264          -0.236134          -0.572713           0.124233           0.775900           0.255373          -0.404190
hessian_block                4       8          -0.294154           0.029957          -0.140747           0.096454          -0.343534          -0.073170          -0.163664           0.058057           0.134654
hessian_block                4       9          -0.301006           0.610954           0.131898           0.030383          -2.284249          -1.119809           0.045260          -0.498867          -0.375499
hessian_block                4      10          -0.296182          -0.322453           0.026035          -0.153266           0.500859           0.367475           0.102515           0.508858           0.456513
hessian_block                4      11          -1.985563           0.071509           0.817726          -0.700441          -0.461355           0.101074           0.929299          -0.044737          -0.590979
hessian_block                4      12          -0.139445           0.500486          -0.016639           0.314848           0.309719           0.093082          -0.033331           0.242609          -0.127632
hessian_block                5       5           5.730279          -1.075097          -1.238907          -1.075097           6.571603          -1.058564          -1.238907          -1.058564           7.597609
hessian_block                5       6           1.014347          -0.977261          -0.156389           0.824445          -1.125708           0.595309           1.048663          -2.028116           0.703715
hessian_block                5       7          -0.883801           1.425974           0.010435          -0.913468           0.378782           0.462203           0.598600           0.011167          -1.045495
hessian_block                5       8           0.384735          -0.434513           0.434181           0.582149          -0.571731          -0.464115           0.088003           0.852730          -0.805313
hessian_block                5       9          -1.340284          -0.314811           1.727503           0.164839          -2.376723           2.174301           1.970071           1.897494          -3.466509
hessian_block                5      10          -0.870598           1.337912           0.254044          -0.525190           1.352839          -0.590304          -0.412493           0.962554          -0.964494
hessian_block                5      11           1.274777          -1.497139           0.078825           1.197711          -1.252507          -0.178456          -0.710343          -0.117415           1.163174
hessian_block                5      12           0.665299          -0.219002          -0.447065          -0.125031          -0.509121           0.248658           0.746497          -1.545410           0.671314
hessian_block                6       6           6.610027           1.781178           4.070745           1.781178           7.405340           4.389876           4.070745           4.389876          12.676086
hessian_block                6       7          -0.476504          -0.703075          -0.994665           0.333714           0.375664           1.076103           0.599959           0.376256           0.209077
hessian_block                6       8           0.661006           1.048106           1.199933           0.759534           0.793335           1.235327          -0.609042          -0.935494          -1.837086
hessian_block                6       9           0.042931           0.107098          -0.008338           1.100957           1.782559           1.826902           0.438205           0.044601          -0.447573
hessian_block                6      10          -3.115008          -2.822705          -5.219285          -2.797355          -3.749824          -5.708099          -3.734096          -4.346579          -7.148559
hessian_block                6      11           1.032208           1.231433           1.420425           0.740402           1.391525           1.456332          -0.321340           0.330740           0.632390
hessian_block                6      12           1.016438           0.656331           1.101318           0.190079           0.148947           0.751827           1.566311           1.634505           2.952739
hessian_block                7       7           5.758647           0.777899           0.801468           0.777899           6.032064          -1.267926           0.801468          -1.267926           7.656279
hessian_block                7       8          -0.428752          -0.010852           0.029628          -0.249989          -0.098732           0.754503           0.558770          -0.566390           0.737958
hessian_block                7       9           0.423183           0.535878          -0.190448          -1.022530          -0.468466          -0.028810           0.059237          -0.428725           1.247770
hessian_block                7      10           0.813055          -0.533200          -0.614911           0.867765          -0.726931          -0.473387           0.225239          -1.193597           0.028536
hessian_block                7      11          -2.401156           0.155347          -1.296470          -0.175814          -1.820659           2.388428          -1.449328           2.239376          -3.460865
hessian_block                7      12          -0.244982          -0.059498           0.552695          -0.485772           0.239141          -0.357301          -1.099033           0.226832          -0.536586
hessian_block                8       8           5.030415           0.179059          -1.285770           0.179059           5.711324           1.081084          -1.285770           1.081084           7.421273
hessian_block                8       9           0.285112          -0.482030          -0.192711           0.685459           0.620095          -0.698796           0.017359           0.401516           0.858728
hessian_block                8      10          -0.669533          -0.834567           0.891510          -1.179629          -0.879710           1.234863          -1.058223          -0.681556           1.375127
hessian_block                8      11           0.810745           0.196569          -0.631547           0.646448           0.916230          -0.030934           0.300022          -0.564298          -0.895384
hessian_block                8      12          -0.556717           1.164011           1.434996           1.154290          -1.296889          -2.168096           2.110730          -1.332370          -3.736428
hessian_block                9       9           5.034206          -0.569508          -0.770484          -0.569508           7.047168          -1.229635          -0.770484          -1.229635           7.719872
hessian_block                9      10           0.003485          -0.724118          -0.342895          -0.225713          -1.291927           0.040373          -0.391859          -1.273537           0.464223
hessian_block                9      11          -0.217810           1.460130           0.176506          -0.589901           1.390509           0.432314           0.404306           0.158439          -1.122761
hessian_block                9      12           0.107122           0.140050           0.704842           0.166324          -0.137141          -0.353536          -0.050807           1.498735          -0.668929
hessian_block               10      10           7.123025           2.327937           3.402010           2.327937           8.381706           4.198560           3.402010           4.198560          10.307713
hessian_block               10      11          -1.125375          -1.156730          -0.648718          -0.881921          -1.592242          -0.789184           0.108233          -0.612750          -0.812708
hessian_block               10      12          -1.097520          -0.640996          -0.754059          -0.635778          -0.626617          -0.460307          -1.713052          -1.671300          -1.998021
hessian_block               11      11           6.365426           1.391994           0.787048           1.391994           6.819942          -1.375533           0.787048          -1.375533           7.569892
hessian_block               11      12           0.588134           0.289165          -0.436620           0.467275          -0.044028           0.498261           1.473746           0.569172           0.600883
hessian_block               12      12           5.161690           0.220693          -0.390363           0.220693           5.486073           1.535388          -0.390363           1.535388           8.529993
hessian_block_lv             1       1          27.115056          -0.626171           5.791420          -0.626171          26.636677           3.344766           5.791420           3.344766           2.222189
hessian_block_lv_atom        1       1           0.135920           0.272444          -0.116916          -0.502790          -0.645511           0.177607          -0.354709          -0.503470           0.059097
hessian_block_lv_atom        1       2          -0.920001          -1.348857           0.061698           0.339476          -0.000127           0.505082           0.383589           0.010497           0.276382
hessian_block_lv_atom        1       3          -0.856517          -1.318388           0.264428           0.586656           0.890601           0.105831          -0.323408          -0.681280           0.246322
hessian_block_lv_atom        1       4          -0.192577          -0.242466          -0.058373           1.383907           1.453254           0.414512           0.461353           0.342672           0.129014
hessian_block_lv_atom        1       5           0.839699           1.036606           0.236371           0.090112          -0.106180           0.576699          -1.994477          -2.831483          -1.484460
hessian_block_lv_atom        1       6          -0.232501          -0.383130          -0.827237          -1.055812          -0.985123          -1.087475          -3.081243          -3.579150          -2.584668
hessian_block_lv_atom        1       7          -0.947553          -1.285974           0.221297          -1.569502          -1.818527          -0.735171           1.639899           2.633733           1.171265
hessian_block_lv_atom        1       8           0.068521           0.477157          -0.438049          -0.281176          -0.284865          -0.095614           1.721952           2.338308           1.562121
hessian_block_lv_atom        1       9           0.073577           0.227484          -0.191420          -0.803515          -0.626449          -0.793460           2.206964           3.186665           1.407128
hessian_block_lv_atom        1      10           0.187087           0.384072           0.919724           1.124686           0.807763           1.173625           2.881385           3.769989           2.341138
hessian_block_lv_atom        1      11           1.163604           1.636166          -0.262897           0.550434           1.089153           0.031135          -1.830713          -2.710272          -1.426140
hessian_block_lv_atom        1      12           0.680743           0.544885           0.191374           0.137525           0.226010          -0.272772          -1.710593          -1.976210          -1.697198
symmetry_n_params 39 3 36
symmetry_params a1 b2 c3 x0 x1 x2 x3 x4 x5 x6 x7 x8 x9 x10 x11 x12 x13 x14 x15 x16 x17 x18 x19 x20 x21 x22 x23 x24 x25 x26 x27 x28 x29 x30 x31 x32 x33 x34 x35
symmetry_lv a1 , 0 , 0 
symmetry_lv 0 , b2 , 0 
symmetry_lv 0 , 0 , c3
symmetry_frac x0 , x1 , x2
symmetry_frac x3 , x4 , x5
symmetry_frac x6 , x7 , x8
symmetry_frac x9 , x10 , x11
symmetry_frac x12 , x13 , x14
symmetry_frac x15 , x16 , x17
symmetry_frac x18 , x19 , x20
symmetry_frac x21 , x22 , x23
symmetry_frac x24 , x25 , x26
symmetry_frac x27 , x28 , x29
symmetry_frac x30 , x31 , x32
symmetry_frac x33 , x34 , x35
