# 
# This is the geometry file that corresponds to the current relaxation step.
# If you do not want this file to be written, set the "write_restart_geometry" flag to .false.
#  aims_uuid : 120EACC5-9FE8-46AF-AA88-77AC7DEDB1E3                                
# 
lattice_vector      5.84211681      0.00000000      0.00000000
lattice_vector      0.00000000      5.95279793      0.00000000
lattice_vector      0.00000000      0.00000000      7.52609328
atom_frac       0.50210366      0.00220404      0.00192438 Pd
atom_frac       0.00216028      0.00217400      0.50245940 Pd
atom_frac       0.00231235      0.50218116      0.00193391 Pd
atom_frac       0.50223036      0.50217865      0.50244408 Pd
atom_frac       0.61432211      0.12062276      0.40566997 Se
atom_frac       0.89007265      0.88376638      0.90544502 Se
atom_frac       0.11428673      0.38382542      0.59896333 Se
atom_frac       0.39015148      0.62058345      0.09873452 Se
atom_frac       0.39013136      0.88384316      0.59897100 Se
atom_frac       0.11426912      0.12060557      0.09874304 Se
atom_frac       0.89007509      0.62061036      0.40566906 Se
atom_frac       0.61429444      0.38381471      0.90545192 Se
# 
# What follows is the current estimated Hessian matrix constructed by the BFGS algorithm.
# This is NOT the true Hessian matrix of the system.
# If you do not want this information here, switch it off using the "hessian_to_restart_geometry" keyword.
# 
trust_radius             0.0976812536
hessian_block                1       1           5.963861          -0.027982          -2.191734          -0.027982           6.380773          -1.225244          -2.191734          -1.225244           4.707440
hessian_block                1       2          -0.100284           0.544533          -0.030855           0.357489           0.368953          -0.243310          -0.009825           0.169788          -0.045445
hessian_block                1       3          -0.104645           0.690672          -0.100573          -0.085660          -0.220103           0.057119          -0.170688           0.096676          -0.099799
hessian_block                1       4           0.534257           0.223883          -0.081303           0.204565          -0.371642          -0.170123           0.096117           0.056544          -0.006103
hessian_block                1       5          -0.027609          -0.546609          -0.144842          -0.423736           0.118004           0.145925          -0.233621           0.107230           0.303372
hessian_block                1       6          -1.764385           0.278503           0.961233           0.439182          -0.388326           0.044199           1.304222          -0.283723          -0.017224
hessian_block                1       7          -0.377229           0.190027           0.119557           0.104361           0.338926           0.182121           0.034121          -0.029121          -0.031503
hessian_block                1       8          -0.287373          -0.524065           0.420757          -0.310806          -2.058865           0.820888           0.004419           0.764372          -0.611532
hessian_block                1       9          -0.154255           0.070034           0.192195          -0.399824          -0.240493           0.061772          -0.069286          -0.203287          -0.070588
hessian_block                1      10          -2.258786           0.617757           0.709179           0.103851          -0.243214          -0.563349           0.734674          -0.310771          -0.960487
hessian_block                1      11           0.127690          -0.484638          -0.062511           0.163076          -0.221323           0.014126           0.092887           0.192590           0.272644
hessian_block                1      12           0.014667          -1.032115           0.208897          -0.124518          -1.815666           0.875879           0.408717           0.664944          -0.338912
hessian_block                2       2           6.244448           0.287657           2.383823           0.287657           6.770034           1.706984           2.383823           1.706984           5.031106
hessian_block                2       3           1.044212           0.631501           0.472497          -0.510470          -0.256535          -0.166175           0.177734          -0.082439           0.115813
hessian_block                2       4           0.218443           0.512693           0.119376          -0.666000           0.285872           0.138668           0.024848           0.361482           0.140590
hessian_block                2       5          -2.208052           0.267168          -0.896203           0.510375          -0.349813           0.270315          -0.665344          -0.145901          -0.728010
hessian_block                2       6          -0.337576          -0.254546          -0.296830          -0.148017          -0.853434          -0.598345          -0.124676          -0.338643          -0.739786
hessian_block                2       7           0.006582          -0.660414          -0.232966          -0.283783          -1.884814          -0.992566          -0.311117          -0.917375          -0.425325
hessian_block                2       8          -0.205237          -0.353841          -0.272436           0.101001          -0.163958          -0.104112          -0.029179          -0.026957           0.237911
hessian_block                2       9          -2.009193           0.331782          -0.990527           0.722728          -0.837254           0.045563          -1.190353           0.167107          -0.363878
hessian_block                2      10           0.311233          -0.125662           0.298850           0.164049           0.597764           0.721803           0.080667           0.600701           0.774103
hessian_block                2      11          -0.693056          -0.733122          -0.384689          -0.583469          -2.355280          -1.180217          -0.109014          -0.987422          -0.673918
hessian_block                2      12          -0.705612          -0.260707          -0.191069          -0.138606           0.325486          -0.011707          -0.206534          -0.094227          -0.221295
hessian_block                3       3           6.659584          -0.501521           2.317211          -0.501521           6.260571          -1.253764           2.317211          -1.253764           4.705805
hessian_block                3       4           0.286381          -0.256660          -0.066370          -0.569363           0.380742          -0.194581           0.130999          -0.046464           0.040246
hessian_block                3       5          -0.585861           0.121494          -0.226599          -0.037642           0.236837           0.185885           0.076976           0.046468           0.227649
hessian_block                3       6          -0.639813           0.577905          -0.284139           0.039633          -1.868898           0.911585          -0.723483           0.704819          -0.447399
hessian_block                3       7           0.110302          -0.003644           0.131943           0.192902          -0.091364           0.130003          -0.158672          -0.024632          -0.070534
hessian_block                3       8          -2.029225          -0.271748          -0.750200          -0.615462          -0.496169          -0.385672          -0.850298          -0.242406          -0.526536
hessian_block                3       9          -0.284421           0.376950           0.120831           0.063890          -0.144340           0.100865          -0.417195           0.249043          -0.050928
hessian_block                3      10           0.295661           0.509619          -0.087180           1.021238          -1.929276           0.966385           0.199769           0.859777          -0.575038
hessian_block                3      11          -0.575984           0.278186          -0.136798          -0.300563          -0.118576          -0.154100           0.109244           0.033880           0.171264
hessian_block                3      12          -2.610278          -0.234452          -1.025745          -0.615284          -0.105864          -0.320845          -1.056474          -0.217665          -0.388679
hessian_block                4       4           5.937047           0.060140          -1.994780           0.060140           6.801365           1.460973          -1.994780           1.460973           4.866285
hessian_block                4       5          -0.422521           0.910960           0.278458           0.203421          -1.960678          -0.926572           0.015381          -1.303689          -0.680307
hessian_block                4       6          -0.109433           0.064016          -0.124883          -0.209877          -0.568950          -0.400986           0.337987          -0.479310          -0.369561
hessian_block                4       7          -1.947204          -0.869387           0.754467          -0.265786          -0.598094           0.124277           0.825182           0.221025          -0.396650
hessian_block                4       8          -0.277699          -0.061941          -0.150914           0.184419          -0.327168          -0.057946          -0.203919           0.102826           0.149143
hessian_block                4       9          -0.322720           0.591670           0.131888           0.081513          -2.402192          -1.140093           0.089297          -0.520672          -0.369190
hessian_block                4      10          -0.389811          -0.168818           0.039875          -0.254157           0.618576           0.361561          -0.009044           0.631281           0.471702
hessian_block                4      11          -1.896888          -0.016029           0.813205          -0.591098          -0.483733           0.113069           0.928019          -0.020966          -0.591622
hessian_block                4      12          -0.043941           0.520185           0.000719           0.311508           0.272927           0.094155           0.040171           0.134567          -0.152669
hessian_block                5       5           5.450993          -0.418546          -1.145764          -0.418546           6.071500          -1.070045          -1.145764          -1.070045           7.615235
hessian_block                5       6           0.020182          -0.152914          -0.127635          -0.087764          -0.296827           0.642534          -0.145053          -0.590098           0.855273
hessian_block                5       7          -0.323375           1.033705           0.019988          -1.036098           0.249770           0.430975           0.251334           0.346218          -1.031429
hessian_block                5       8          -0.186098          -0.146732           0.425878           0.494356          -0.083547          -0.382822           0.325863           0.448454          -0.856524
hessian_block                5       9          -1.467853          -0.459335           1.683680          -0.584250          -1.826227           2.178119           1.708821           2.165459          -3.460400
hessian_block                5      10           0.177964           0.434681           0.206862           0.399347           0.505908          -0.654691           0.400893          -0.059443          -1.077292
hessian_block                5      11           0.542997          -0.874694           0.091043           0.860155          -0.532725          -0.077033          -0.542771          -0.165984           1.182495
hessian_block                5      12           0.595141           0.331417          -0.347445          -0.380213          -0.485181           0.228854           0.135864          -0.750111           0.751802
hessian_block                6       6           5.278221           0.436771           1.839048           0.436771           6.083175           2.196880           1.839048           2.196880           9.467026
hessian_block                6       7           0.191952          -0.049900           0.223516           0.509476           0.493635           1.112903           0.055149          -0.152881          -0.690393
hessian_block                6       8           0.168990           0.505666           0.176537           0.016933           0.157678           0.421532          -0.001360          -0.351939          -1.081564
hessian_block                6       9           0.228859           0.251580           0.017196           0.205105           0.859273           0.256919           0.002148          -0.370982          -1.159628
hessian_block                6      10          -1.662100          -1.357618          -2.820106          -1.425838          -2.393476          -3.470648          -2.145599          -2.804541          -4.904840
hessian_block                6      11           0.002792           0.235326          -0.315031          -0.369752           0.384027           0.059334          -0.232609           0.448337           0.903301
hessian_block                6      12           0.188220          -0.054984           0.229844           0.114337           0.039144           0.410035           0.355480           0.436136           1.286659
hessian_block                7       7           5.465757           0.655842           1.049677           0.655842           6.142371          -1.243257           1.049677          -1.243257           7.456396
hessian_block                7       8          -0.206117           0.164040          -0.211812           0.145756          -0.266307           0.532526           0.192158          -0.540544           0.973831
hessian_block                7       9           0.279239           0.654128          -0.143328          -0.571426          -0.300929          -0.406114           0.255404          -0.418346           1.099598
hessian_block                7      10           0.082018          -0.700089          -0.014140           0.208039          -0.834403           0.081896          -0.642929          -1.205316           0.657780
hessian_block                7      11          -1.923176           0.267167          -1.676370           0.411594          -1.954181           2.008691          -1.474947           2.180983          -3.413870
hessian_block                7      12           0.207161          -0.262161           0.299978          -0.490191           0.352414          -0.416979          -0.395867           0.238767          -1.026033
hessian_block                8       8           4.940084          -0.309475          -0.977786          -0.309475           5.798690           1.225517          -0.977786           1.225517           7.259925
hessian_block                8       9           0.468971          -0.635707          -0.146627           0.393099           0.033976          -0.254543          -0.185587           0.248325           1.047769
hessian_block                8      10          -0.115367          -0.055027           0.254169          -0.619823          -0.229681           0.655039          -0.318951          -0.147004           0.846775
hessian_block                8      11           0.408157          -0.296240          -0.142294           0.012774           0.815371           0.260854           0.298035          -0.413021          -0.983066
hessian_block                8      12          -1.113177           1.280252           1.574854           1.212047          -1.532994          -2.040673           1.546478          -1.758211          -3.354266
hessian_block                9       9           5.166343          -0.400390          -0.740627          -0.400390           6.458138          -1.536665          -0.740627          -1.536665           7.613461
hessian_block                9      10          -0.176945           0.255699           0.136641          -0.367244          -0.355117           0.475473          -0.394398          -0.144818           0.963137
hessian_block                9      11          -0.078448           0.749275          -0.119000          -0.708569           0.555650           0.152026           0.337134           0.196653          -1.087122
hessian_block                9      12          -0.083667          -0.515418           0.529737           0.295103          -0.153460          -0.407476          -0.067417           0.642345          -1.060364
hessian_block               10      10           5.536457           0.825811           1.702702           0.825811           6.975973           2.634798           1.702702           2.634798           8.743232
hessian_block               10      11          -0.005201          -0.143738           0.577992           0.297730          -0.560480           0.155846          -0.004649          -0.746418          -1.014662
hessian_block               10      12          -0.229213           0.088468          -0.185777          -0.534082          -0.505548          -0.210510          -0.422203          -0.461849          -0.822545
hessian_block               11      11           5.625808           0.610335           0.858067           0.610335           6.431889          -1.188272           0.858067          -1.188272           7.591506
hessian_block               11      12           0.031219           0.197788          -0.259393           0.408174          -0.313617           0.469640           0.496383          -0.164320           0.744911
hessian_block               12      12           5.315391          -0.058276          -0.834599          -0.058276           5.569381           1.329626          -0.834599           1.329626           7.683256
hessian_block_lv             1       1          26.003158           0.131370           5.168598           0.131370          26.251340           3.757918           5.168598           3.757918           2.036916
hessian_block_lv_atom        1       1           0.315057           0.132103           0.040581          -1.166763          -0.203849          -0.278902          -0.888383          -0.180934          -0.203898
hessian_block_lv_atom        1       2          -1.602963          -0.892147          -0.391432          -0.503005           0.525886           0.031776           0.122587           0.178633           0.126872
hessian_block_lv_atom        1       3          -1.880234          -0.648606          -0.397609           0.781306           0.767319           0.197385          -1.156229          -0.173634          -0.203077
hessian_block_lv_atom        1       4          -0.344239          -0.176619          -0.091532           1.440310           1.399730           0.487465           0.502740           0.324734           0.165164
hessian_block_lv_atom        1       5           1.334431           0.645016           0.555504          -0.819276           0.349363           0.135717          -2.021049          -2.802069          -1.495573
hessian_block_lv_atom        1       6           1.176868          -1.117576          -0.180231           0.196856          -1.658890          -0.431559          -1.282092          -4.632814          -1.730917
hessian_block_lv_atom        1       7          -1.739087          -0.899533          -0.199938          -1.490650          -1.785597          -0.753459           2.039699           2.379395           1.417225
hessian_block_lv_atom        1       8           0.825517           0.154513          -0.136913          -0.122019          -0.511422           0.140780           1.253850           2.627487           1.357076
hessian_block_lv_atom        1       9           0.178559           0.255283          -0.167720           0.277133          -1.164861          -0.333841           2.504492           2.981338           1.604621
hessian_block_lv_atom        1      10          -1.271950           1.152019           0.240821          -0.078408           1.458087           0.529584           1.600927           4.511236           1.710651
hessian_block_lv_atom        1      11           2.188853           1.091756           0.300408           1.062777           0.678197           0.427075          -1.977145          -2.631217          -1.471188
hessian_block_lv_atom        1      12           0.819191           0.303790           0.428061           0.421739           0.146035          -0.152022          -0.699399          -2.582155          -1.276954
