# 
# This is the geometry file that corresponds to the current relaxation step.
# If you do not want this file to be written, set the "write_restart_geometry" flag to .false.
#  aims_uuid : B96A3088-80F5-4487-A342-80DB773FE669                                
# 
lattice_vector      5.84151233      0.00000000      0.00000000
lattice_vector      0.00000000      5.95257227      0.00000000
lattice_vector      0.00000000      0.00000000      7.50101262
atom_frac       0.50139194      0.00104650      0.00081418 Pd
atom_frac       0.00102126      0.00106368      0.50174085 Pd
atom_frac       0.00114289      0.50142981      0.00086757 Pd
atom_frac       0.50151073      0.50144775      0.50168654 Pd
atom_frac       0.61313593      0.11922864      0.40395079 Se
atom_frac       0.89020471      0.88373734      0.90408951 Se
atom_frac       0.11275160      0.38335568      0.59919113 Se
atom_frac       0.38976605      0.61958189      0.09860033 Se
atom_frac       0.38981294      0.88374258      0.59918999 Se
atom_frac       0.11279574      0.11923997      0.09861811 Se
atom_frac       0.89016860      0.61957562      0.40395159 Se
atom_frac       0.61310381      0.38335679      0.90410563 Se
# 
# What follows is the current estimated Hessian matrix constructed by the BFGS algorithm.
# This is NOT the true Hessian matrix of the system.
# If you do not want this information here, switch it off using the "hessian_to_restart_geometry" keyword.
# 
trust_radius             0.0122101567
hessian_block                1       1           5.901568           0.054144          -2.197638           0.054144           6.370713          -1.085281          -2.197638          -1.085281           4.830154
hessian_block                1       2          -0.015544           0.531193           0.084673           0.426299           0.390523          -0.090043           0.042870           0.090504          -0.027069
hessian_block                1       3           0.009549           0.668287           0.076726          -0.102577          -0.217521           0.051731          -0.143420           0.223937           0.082131
hessian_block                1       4           0.502627           0.295331          -0.057027           0.183139          -0.356373          -0.168980           0.115904          -0.013054          -0.041790
hessian_block                1       5          -0.091891          -0.544832          -0.242540          -0.388845           0.182562           0.274014          -0.293663           0.216354           0.309757
hessian_block                1       6          -1.735972           0.016290           0.664897           0.378362          -0.468557          -0.203962           1.179100          -0.389313          -0.389866
hessian_block                1       7          -0.356766           0.252198           0.239254           0.119984           0.336727           0.186151           0.085116          -0.185932          -0.144231
hessian_block                1       8          -0.241117          -0.683336           0.316059          -0.409308          -1.984547           0.735795           0.086397           0.715562          -0.562104
hessian_block                1       9          -0.117749           0.019203           0.192609          -0.412519          -0.367090          -0.100637          -0.018057          -0.346190          -0.154327
hessian_block                1      10          -2.266609           0.836208           0.991712           0.187376          -0.228910          -0.359641           0.820674          -0.228074          -0.646453
hessian_block                1      11           0.081794          -0.555340          -0.222913           0.071509          -0.176877          -0.099254           0.015710           0.350560           0.309253
hessian_block                1      12          -0.103980          -0.889346           0.154187          -0.107565          -1.833624           0.860109           0.307009           0.650927          -0.463591
hessian_block                2       2           6.193911           0.291273           2.302516           0.291273           6.778390           1.591205           2.302516           1.591205           4.925693
hessian_block                2       3           0.981191           0.630029           0.339866          -0.481626          -0.245943          -0.146380           0.270445           0.040748           0.066394
hessian_block                2       4           0.262267           0.571109           0.135856          -0.639014           0.274470           0.123077          -0.030967           0.273152           0.097650
hessian_block                2       5          -2.180412           0.225878          -0.849859           0.551758          -0.345815           0.169265          -0.552960           0.016185          -0.605158
hessian_block                2       6          -0.576795          -0.439627          -0.199894          -0.223308          -0.853733          -0.406281          -0.192375          -0.254967          -0.367433
hessian_block                2       7           0.070979          -0.603349          -0.277706          -0.299099          -1.812513          -0.939074          -0.463440          -1.138515          -0.512237
hessian_block                2       8          -0.305974          -0.441766          -0.241524           0.163687          -0.149123          -0.042617          -0.112804          -0.143186           0.097014
hessian_block                2       9          -2.043268           0.315234          -1.002953           0.615366          -0.883799           0.151418          -1.333156          -0.057020          -0.478023
hessian_block                2      10           0.508981           0.005737           0.170830           0.149766           0.513298           0.494585           0.151872           0.545146           0.479804
hessian_block                2      11          -0.742564          -0.793657          -0.309579          -0.515152          -2.367182          -1.104691           0.037276          -0.791454          -0.554903
hessian_block                2      12          -0.586864          -0.187163          -0.110422          -0.144845           0.348450           0.018989          -0.161079           0.008748          -0.019867
hessian_block                3       3           6.580236          -0.474104           2.450452          -0.474104           6.238978          -1.252083           2.450452          -1.252083           4.909208
hessian_block                3       4           0.360126          -0.252281          -0.025271          -0.545263           0.368264          -0.207288           0.042659          -0.038322          -0.028807
hessian_block                3       5          -0.572189           0.111591          -0.325955           0.000529           0.262206           0.296391           0.278720           0.020517           0.335840
hessian_block                3       6          -0.946342           0.597702          -0.606472          -0.010984          -1.869770           0.726496          -0.708614           0.670726          -0.668407
hessian_block                3       7           0.200328          -0.006119           0.269263           0.211318          -0.096819           0.172829          -0.415566           0.018157          -0.276272
hessian_block                3       8          -2.176646          -0.289889          -0.860169          -0.523604          -0.487432          -0.442382          -0.995397          -0.189536          -0.549390
hessian_block                3       9          -0.328050           0.369523           0.120177          -0.064630          -0.160591          -0.062783          -0.669648           0.290101          -0.244063
hessian_block                3      10           0.543251           0.496826           0.195186           0.950121          -1.902201           1.060245           0.198778           0.861570          -0.395180
hessian_block                3      11          -0.645123           0.263664          -0.306135          -0.227719          -0.123878          -0.238448           0.358401           0.007807           0.312528
hessian_block                3      12          -2.440419          -0.232711          -1.038100          -0.613980          -0.118268          -0.317662          -0.956376          -0.294289          -0.442118
hessian_block                4       4           5.913440           0.054628          -1.990872           0.054628           6.770877           1.455257          -1.990872           1.455257           4.853256
hessian_block                4       5          -0.479151           0.875781           0.324059           0.219319          -1.993660          -1.010357           0.017072          -1.275195          -0.650827
hessian_block                4       6          -0.141858           0.154971           0.003465          -0.268960          -0.488462          -0.260036           0.258812          -0.324095          -0.126938
hessian_block                4       7          -1.908622          -0.879932           0.692014          -0.240432          -0.542473           0.145587           0.795191           0.204969          -0.396207
hessian_block                4       8          -0.237083          -0.018885          -0.121114           0.099188          -0.354271          -0.019516          -0.193768           0.085531           0.078767
hessian_block                4       9          -0.282755           0.611750           0.117893           0.062030          -2.348836          -1.032422           0.059142          -0.553151          -0.381409
hessian_block                4      10          -0.347792          -0.263232          -0.094964          -0.214206           0.545171           0.234292           0.060213           0.491314           0.288094
hessian_block                4      11          -1.937969          -0.012791           0.895146          -0.665539          -0.522747           0.158986           0.917734          -0.004398          -0.567538
hessian_block                4      12          -0.137321           0.478848           0.046777           0.339813           0.295065           0.106432           0.022917           0.172959          -0.022388
hessian_block                5       5           5.363921          -0.562392          -1.287674          -0.562392           5.957646          -1.030641          -1.287674          -1.030641           7.545836
hessian_block                5       6           0.359611          -0.162517          -0.245185           0.095758          -0.217210           0.460195          -0.097800          -0.620229           0.435610
hessian_block                5       7          -0.502555           0.951006           0.008979          -0.963766           0.390872           0.441583           0.458459           0.254096          -1.058776
hessian_block                5       8           0.052233          -0.039972           0.396981           0.354858          -0.244627          -0.536165           0.450396           0.434453          -0.766368
hessian_block                5       9          -1.344961          -0.360561           1.747787          -0.370204          -1.704403           2.138843           1.887185           2.055449          -3.443720
hessian_block                5      10          -0.127569           0.407718           0.374024           0.277106           0.354463          -0.419161           0.364408           0.019919          -0.733614
hessian_block                5      11           0.714275          -0.802665           0.067018           0.778918          -0.642628          -0.278192          -0.735444          -0.126136           1.123868
hessian_block                5      12           0.374598           0.186623          -0.511100          -0.278696          -0.352383           0.245677           0.054766          -0.716223           0.609415
hessian_block                6       6           5.488489           0.514861           2.075100           0.514861           5.942558           2.044212           2.075100           2.044212           8.837693
hessian_block                6       7           0.131325          -0.034258           0.006054           0.269683           0.282220           0.907395           0.308453           0.072808          -0.246929
hessian_block                6       8           0.125125           0.464620           0.254946           0.326692           0.271722           0.373553          -0.045270          -0.288308          -0.798396
hessian_block                6       9           0.088192           0.173667           0.094150           0.219284           0.794661           0.303719           0.276092          -0.100920          -0.628943
hessian_block                6      10          -1.834622          -1.360372          -2.887144          -1.399739          -2.132859          -3.071477          -2.344454          -2.687038          -4.393492
hessian_block                6      11           0.134843           0.248451          -0.074769          -0.053068           0.485709          -0.012229          -0.355796           0.252819           0.464764
hessian_block                6      12           0.473913           0.022163           0.092541          -0.044534          -0.099257           0.372705           0.469066           0.390014           0.984201
hessian_block                7       7           5.371560           0.779739           0.984666           0.779739           6.037737          -1.301650           0.984666          -1.301650           7.609498
hessian_block                7       8          -0.163605          -0.015359          -0.124120          -0.011728          -0.166180           0.692163           0.248498          -0.554037           0.901287
hessian_block                7       9           0.379826           0.572457          -0.217390          -0.494711          -0.499909          -0.270423           0.193028          -0.433921           1.212844
hessian_block                7      10           0.131471          -0.456396          -0.299211           0.163719          -0.623109          -0.150629          -0.423973          -1.051172           0.326870
hessian_block                7      11          -1.852419           0.143343          -1.563273           0.257109          -1.912734           2.253616          -1.468815           2.229983          -3.467125
hessian_block                7      12           0.064388          -0.121472           0.451119          -0.373672           0.253204          -0.448664          -0.471261           0.196327          -0.846857
hessian_block                8       8           4.719572          -0.027733          -0.997500          -0.027733           5.537001           1.329330          -0.997500           1.329330           7.121473
hessian_block                8       9           0.281703          -0.474858          -0.226210           0.278116           0.275953          -0.243953          -0.069641           0.388727           0.952344
hessian_block                8      10          -0.074199          -0.310673           0.231442          -0.506701          -0.292387           0.501601          -0.416940          -0.062793           0.665531
hessian_block                8      11           0.372298          -0.136830          -0.169227           0.241900           0.632318           0.419498           0.307712          -0.628866          -0.885539
hessian_block                8      12          -0.786397           0.950308           1.723443           1.039004          -1.391401          -2.066955           1.555309          -1.787230          -3.152755
hessian_block                9       9           5.037000          -0.521479          -0.793060          -0.521479           6.311369          -1.386513          -0.793060          -1.386513           7.675248
hessian_block                9      10          -0.056625           0.283312          -0.180739          -0.282546          -0.222032           0.178453          -0.473224          -0.250371           0.550382
hessian_block                9      11          -0.179291           0.704895          -0.010925          -0.604785           0.763613           0.377409           0.437506           0.153090          -1.100877
hessian_block                9      12           0.131888          -0.299459           0.659779           0.182396          -0.311911          -0.412422           0.002717           0.600034          -0.857590
hessian_block               10      10           5.665146           0.719526           1.770721           0.719526           6.571772           2.325359           1.770721           2.325359           8.284378
hessian_block               10      11          -0.108068          -0.087227           0.332453           0.029111          -0.581692           0.238165           0.165189          -0.517144          -0.657965
hessian_block               10      12          -0.467454           0.042807          -0.040526          -0.387765          -0.354490          -0.202025          -0.437047          -0.276483          -0.666492
hessian_block               11      11           5.573301           0.747848           0.809915           0.747848           6.325410          -1.445594           0.809915          -1.445594           7.537076
hessian_block               11      12           0.154834          -0.060131          -0.489387           0.280311          -0.232289           0.519332           0.552289          -0.269264           0.588320
hessian_block               12      12           4.888724           0.109531          -0.938309           0.109531           5.443928           1.324483          -0.938309           1.324483           7.391587
hessian_block_lv             1       1          26.438260          -1.573546           5.378036          -1.573546          25.439323           2.664472           5.378036           2.664472           1.917949
hessian_block_lv_atom        1       1           0.181962           0.383325           0.038433          -0.527002          -0.666364          -0.155503          -0.228141          -0.305987          -0.039507
hessian_block_lv_atom        1       2          -0.880299          -1.302237          -0.271026           0.218845          -0.188963           0.070682           0.201351          -0.285290           0.009439
hessian_block_lv_atom        1       3          -0.909161          -1.430530          -0.255014           0.543521           0.853139           0.178738          -0.317239          -0.669535          -0.072346
hessian_block_lv_atom        1       4          -0.131931          -0.156599          -0.043442           1.253683           1.264711           0.390940           0.371557           0.197811           0.070543
hessian_block_lv_atom        1       5           0.821914           1.015645           0.483584           0.090235          -0.137216           0.252102          -1.808703          -2.543966          -1.363368
hessian_block_lv_atom        1       6          -0.112711          -0.208707          -0.341577          -0.767738          -0.551789          -0.473845          -2.467900          -2.629603          -1.519871
hessian_block_lv_atom        1       7          -0.899269          -1.248574           0.016947          -1.428337          -1.579088          -0.663565           1.552591           2.477264           1.232889
hessian_block_lv_atom        1       8           0.046599           0.512416          -0.259616          -0.137046          -0.101698           0.172082           1.661232           2.207096           1.288980
hessian_block_lv_atom        1       9           0.029138           0.194097          -0.237062          -0.787030          -0.591200          -0.436744           2.045031           2.930727           1.382806
hessian_block_lv_atom        1      10          -0.031473           0.001406           0.353731           0.775861           0.229768           0.499201           2.290517           2.874717           1.541353
hessian_block_lv_atom        1      11           1.072548           1.514977           0.055657           0.639508           1.224146           0.382914          -1.641088          -2.398170          -1.328023
hessian_block_lv_atom        1      12           0.812684           0.724781           0.459386           0.125500           0.244553          -0.217003          -1.659210          -1.855065          -1.202895
symmetry_n_params 39 3 36
symmetry_params a1 b2 c3 x0 x1 x2 x3 x4 x5 x6 x7 x8 x9 x10 x11 x12 x13 x14 x15 x16 x17 x18 x19 x20 x21 x22 x23 x24 x25 x26 x27 x28 x29 x30 x31 x32 x33 x34 x35
symmetry_lv a1 , 0 , 0 
symmetry_lv 0 , b2 , 0 
symmetry_lv 0 , 0 , c3
symmetry_frac x0 , x1 , x2
symmetry_frac x3 , x4 , x5
symmetry_frac x6 , x7 , x8
symmetry_frac x9 , x10 , x11
symmetry_frac x12 , x13 , x14
symmetry_frac x15 , x16 , x17
symmetry_frac x18 , x19 , x20
symmetry_frac x21 , x22 , x23
symmetry_frac x24 , x25 , x26
symmetry_frac x27 , x28 , x29
symmetry_frac x30 , x31 , x32
symmetry_frac x33 , x34 , x35
