# 
# This is the geometry file that corresponds to the current relaxation step.
# If you do not want this file to be written, set the "write_restart_geometry" flag to .false.
#  aims_uuid : 82960AE3-5527-49C2-AA6E-A0024194B3F7                                
# 
lattice_vector      3.71985738      0.00000000      0.00000000
lattice_vector     -1.85992869      3.22149099      0.00000000
lattice_vector      0.00000000      0.00000000    101.66128203
atom_frac       0.00069061      0.66727731      0.50134235 Se
atom_frac       0.33412237      0.33417148      0.47532084 Se
atom_frac       0.66736367      0.00072787      0.48833404 Pt
# 
# What follows is the current estimated Hessian matrix constructed by the BFGS algorithm.
# This is NOT the true Hessian matrix of the system.
# If you do not want this information here, switch it off using the "hessian_to_restart_geometry" keyword.
# 
trust_radius             0.0503579933
hessian_block                1       1           1.188509          -0.692218          -5.748837          -0.692218           0.999428           2.752486          -5.748837           2.752486        1049.356584
hessian_block                1       2           0.034437           0.102048           1.527559           0.086159           0.084073          -0.417377          -1.701532           0.970544         -20.974354
hessian_block                1       3          -0.978939           0.468166           4.221278           0.484055          -0.839495          -2.335110           7.450369          -3.723031        -849.229293
hessian_block                2       2           1.072185          -0.618259           0.953983          -0.618259           1.009631          -1.708992           0.953983          -1.708992         947.776918
hessian_block                2       3          -0.862615           0.410096           0.747549           0.394207          -0.849697           0.738448          -2.481542           2.126369        -747.649627
hessian_block                3       3           2.085560          -1.000265          -4.968827          -1.000265           1.933199           1.596662          -4.968827           1.596662        1776.031857
hessian_block_lv             1       1          18.312704           0.092542           0.000000           0.092542           0.004947           0.000000           0.000000           0.000000           0.000000
hessian_block_lv_atom        1       1          -0.662294           0.011447           0.000000           0.409738          -0.008855           0.000000          71.923103           0.905470           0.000000
hessian_block_lv_atom        1       2          -0.055319          -0.002014           0.000000           0.014836           0.006270           0.000000         -52.665085          -1.470829           0.000000
hessian_block_lv_atom        1       3           0.717613          -0.009433           0.000000          -0.424574           0.002585           0.000000         -19.258019           0.565359           0.000000
