# 
# This is the geometry file that corresponds to the current relaxation step.
# If you do not want this file to be written, set the "write_restart_geometry" flag to .false.
#  aims_uuid : 4FA2957B-C48D-4635-A5E6-0397B4DDD48E                                
# 
lattice_vector      3.77973092      0.00000000      0.00000000
lattice_vector     -1.88986546      3.27334299      0.00000000
lattice_vector      0.00000000      0.00000000      4.95771639
atom_frac      -0.00031884     -0.00033167     -0.00025646 Pt
atom_frac       0.33318804      0.66618590      0.25914824 Se
atom_frac       0.66633211      0.33334707      0.74030952 Se
# 
# What follows is the current estimated Hessian matrix constructed by the BFGS algorithm.
# This is NOT the true Hessian matrix of the system.
# If you do not want this information here, switch it off using the "hessian_to_restart_geometry" keyword.
# 
trust_radius             0.1000000015
hessian_block                1       1           9.068552          -0.154818           0.668452          -0.154818           7.166526          -0.454377           0.668452          -0.454377          24.253184
hessian_block                1       2          -3.473380          -0.334311          -0.484109          -0.055854          -2.422558           0.715792           0.258403           0.550671         -10.268259
hessian_block                1       3          -3.732088          -0.442413          -0.184343          -0.720870          -2.880884          -0.261415          -0.926855          -0.096294         -10.911914
hessian_block                2       2           5.327688          -1.323396           0.624807          -1.323396           5.639569          -1.284466           0.624807          -1.284466          15.365898
hessian_block                2       3           0.008775           0.447708          -0.883210           0.726166          -1.353928           0.733795          -0.140698           0.568674          -2.024628
hessian_block                3       3           5.586396          -0.936837           1.067553          -0.936837           6.097895          -0.472380           1.067553          -0.472380          16.009552
hessian_block_lv             1       1          35.086443           5.780104           0.000000           5.780104           2.014101           0.000000           0.000000           0.000000           0.000000
hessian_block_lv_atom        1       1           0.540235           0.283361           0.000000           0.300055           0.178918           0.000000           0.402248           0.115219           0.000000
hessian_block_lv_atom        1       2           1.508943           0.208314           0.000000           2.225125           0.204871           0.000000           3.066488           2.585043           0.000000
hessian_block_lv_atom        1       3          -2.049177          -0.491675           0.000000          -2.525181          -0.383789           0.000000          -3.468736          -2.700262           0.000000
