# 
# This is the geometry file that corresponds to the current relaxation step.
# If you do not want this file to be written, set the "write_restart_geometry" flag to .false.
#  aims_uuid : 12CFC22B-95CE-4D53-A23C-7B4432BC2ABC                                
# 
lattice_vector      3.28790264      0.00000000      0.00000000
lattice_vector     -1.64395132      2.84740721      0.00000000
lattice_vector      0.00000000      0.00000000     13.23823848
atom_frac       0.32929719      0.66495615      0.25243181 W
atom_frac       0.67572332      0.34008062      0.75259033 W
atom_frac       0.34233936      0.67339091      0.88010055 Se
atom_frac       0.66269142      0.33162479      0.37996111 Se
atom_frac       0.66268628      0.33162991      0.12489904 Se
atom_frac       0.34233796      0.67339316      0.62509269 Se
# 
# What follows is the current estimated Hessian matrix constructed by the BFGS algorithm.
# This is NOT the true Hessian matrix of the system.
# If you do not want this information here, switch it off using the "hessian_to_restart_geometry" keyword.
# 
trust_radius             0.0055736426
hessian_block                1       1         484.671935         166.982934          -8.675983         166.982934          72.646100          -3.701627          -8.675983          -3.701627         167.897411
hessian_block                1       2        -478.161819        -171.990129           8.517852        -172.581161         -66.598628           3.819264           4.195352          -1.154461         -30.760409
hessian_block                1       3           0.165516          -1.080436           0.315864           7.046967           4.388016          -0.170295          42.759860           8.925633          24.592633
hessian_block                1       4          -3.034747           3.388355          -0.255251          -4.387227          -6.980254           0.160121          45.775714          13.273315         -73.735815
hessian_block                1       5          -2.987117           3.363240          -0.239372          -4.468666          -6.976873           0.107200         -47.736600         -10.111882         -79.541731
hessian_block                1       6           0.205465          -1.093580           0.336890           6.977537           4.380872          -0.214662         -36.318342          -7.230979           5.995901
hessian_block                2       2         484.615578         166.460532          -3.941985         166.460532          73.762444           0.826202          -3.941985           0.826202         202.496421
hessian_block                2       3          -3.220805           3.891849          -0.816874          -4.250792          -7.490480          -1.431688         -42.958113          -8.679972         -91.959964
hessian_block                2       4           0.422426          -1.019760           0.644525           6.774790           4.285991           1.642897         -46.552435         -12.409284          13.907982
hessian_block                2       5           0.425932          -1.046739           0.673347           6.800111           4.339773           1.601098          48.840788           8.958246          18.498361
hessian_block                2       6          -3.222080           3.865663          -0.754364          -4.224128          -7.439868          -1.484048          36.093892           7.485544         -97.734400
hessian_block                3       3           3.324416          -2.290977           2.804950          -2.290977           3.590815          -1.884348           2.804950          -1.884348         122.653516
hessian_block                3       4          -0.656407           0.315242          -2.609144           0.303953          -0.889365           1.645539           0.883488          -1.395386          10.582269
hessian_block                3       5          -0.663535           0.327082          -2.724279           0.318773          -0.907493           1.790936          -2.416483           2.745547         -26.716102
hessian_block                3       6           1.910048          -1.577138           2.726727          -1.572778           2.167739          -1.797789          -0.770945           2.136170         -24.704362
hessian_block                4       4           3.111586          -2.076696          -0.461126          -2.076696           3.378525           0.914503          -0.461126           0.914503         130.166457
hessian_block                4       5           1.685290          -1.358196          -0.496137          -1.359139           1.960030           0.968547           1.830532          -2.147618         -30.080572
hessian_block                4       6          -0.668917           0.313761           0.850496           0.322382          -0.895693          -1.351695           0.850465          -2.215443         -36.392330
hessian_block                5       5           3.074053          -2.048691           1.870301          -2.048691           3.356820          -2.172629           1.870301          -2.172629         107.967942
hessian_block                5       6          -0.675391           0.327996          -2.388539           0.333688          -0.913024           2.728336           0.916140          -2.295152          24.320093
hessian_block                6       6           3.310107          -2.266317          -0.771210          -2.266317           3.559207           2.119859          -0.771210           2.119859         142.963088
hessian_block_lv             1       1          61.642164           6.458609           0.000000           6.458609           2.315583           0.000000           0.000000           0.000000           0.000000
hessian_block_lv_atom        1       1          10.732693           7.524149           0.000000           1.805678           1.803782           0.000000           2.044054           1.649352           0.000000
hessian_block_lv_atom        1       2         -10.899756          -7.578964           0.000000          -1.617832          -1.740339           0.000000           4.900987          -0.545802           0.000000
hessian_block_lv_atom        1       3           0.336468           0.278102           0.000000          -0.724940          -0.256631           0.000000          20.944613           9.246440           0.000000
hessian_block_lv_atom        1       4          -0.228907          -0.242344           0.000000           0.582846           0.216236           0.000000          32.273656          11.559360           0.000000
hessian_block_lv_atom        1       5          -0.259951          -0.254228           0.000000           0.640543           0.228814           0.000000         -25.110658         -10.769562           0.000000
hessian_block_lv_atom        1       6           0.319452           0.273284           0.000000          -0.686294          -0.251862           0.000000         -35.052652         -11.139787           0.000000
