# 
# This is the geometry file that corresponds to the current relaxation step.
# If you do not want this file to be written, set the "write_restart_geometry" flag to .false.
#  aims_uuid : 601EF26C-3D96-4D74-A812-1B40E7F95821                                
# 
lattice_vector      5.69537181      0.00000000      0.00000000
lattice_vector      0.00000000      5.89262712      0.00000000
lattice_vector      0.00000000      0.00000000    101.32710765
atom_frac       0.71682893     -0.00269791      0.49985573 Se
atom_frac       0.60860268      0.61639793      0.49231367 Pd
atom_frac       0.00042777      0.49724851      0.49985489 Se
atom_frac       0.10856205      0.11644613      0.49231322 Pd
atom_frac       0.21688221      0.73551645      0.48478171 Se
atom_frac       0.50037314      0.23557000      0.48478250 Se
# 
# What follows is the current estimated Hessian matrix constructed by the BFGS algorithm.
# This is NOT the true Hessian matrix of the system.
# If you do not want this information here, switch it off using the "hessian_to_restart_geometry" keyword.
# 
trust_radius             0.1120716704
hessian_block                1       1           0.845605           0.002339           3.358653           0.002339           1.208506          -2.885407           3.358653          -2.885407         268.441669
hessian_block                1       2           0.004286          -0.153283          -0.790205          -0.163251          -0.603527          -4.372121          -0.015016          -3.406674         -52.375185
hessian_block                1       3          -0.061069           0.032197          -1.873476           0.030868           0.251201          -2.049287           1.676142          -0.962556          76.023550
hessian_block                1       4          -0.343361          -0.064853           2.942482          -0.164077          -0.023835           0.508110           1.748451          -0.855771         -52.035240
hessian_block                1       5           0.043536           0.089693           1.949003           0.087953          -0.201765           1.871427          -1.664993           2.073677         -43.743592
hessian_block                1       6          -0.199996           0.093907          -5.586457           0.206169          -0.326611           6.927278          -5.103239           6.036731        -105.244396
hessian_block                2       2           1.247604           0.022186           5.085405           0.022186           1.419635           3.760128           5.085405           3.760128         228.466460
hessian_block                2       3          -0.378299           0.163458          -1.870389           0.287989          -0.266160           2.277664          -1.075760          -1.654604         -36.105527
hessian_block                2       4          -0.212904          -0.017488          -1.361686          -0.281640           0.049358          -0.794306          -1.537839           1.662451          71.698189
hessian_block                2       5          -0.416802          -0.089449          -1.724760           0.282079           0.022177           1.933653          -0.990842           1.674604         -52.378220
hessian_block                2       6           0.045116           0.084543          -0.113555          -0.157332          -0.317513          -3.770464          -0.690759          -1.070457         -68.238910
hessian_block                3       3           0.866667          -0.046344          -3.942565          -0.046344           1.407646          -3.031456          -3.942565          -3.031456         259.666705
hessian_block                3       4          -0.000041          -0.118266           0.449163           0.186321          -0.635610          -3.361746           1.386482          -2.677123         -46.470889
hessian_block                3       5          -0.174433          -0.137268           4.983172          -0.279780          -0.191708           6.395078           4.682636           5.163175        -116.218086
hessian_block                3       6           0.036175          -0.016980          -2.090151          -0.055852          -0.261400           2.615285           1.617312           0.317029         -45.828946
hessian_block                4       4           1.192095           0.241417          -4.738594           0.241417           1.408237           4.399837          -4.738594           4.399837         211.686006
hessian_block                4       5           0.022288           0.151241           0.795025          -0.046369          -0.551767          -2.157919           0.120414          -2.297749         -44.204181
hessian_block                4       6          -0.369076          -0.133262           2.346474           0.005559           0.057587          -0.371474           2.588221           1.545854         -49.607079
hessian_block                5       5           0.950731          -0.047819          -4.057197          -0.047819           1.160046          -4.702903          -4.057197          -4.702903         264.647030
hessian_block                5       6          -0.136320           0.003938           1.909982           0.033602           0.066988          -1.910804          -1.945242          -3.339336          82.963855
hessian_block                6       6           0.913103          -0.032146           3.533706          -0.032146           1.084919          -3.489820           3.533706          -3.489820         277.022282
hessian_block_lv             1       1          18.163589           9.285029          -0.468286           9.285029          10.391789          -0.053677          -0.468286          -0.053677           0.071879
hessian_block_lv_atom        1       1          -0.101067           0.182657          -0.004452          -0.523042           0.149797          -0.026524           9.087037           8.876125           0.708802
hessian_block_lv_atom        1       2          -0.189545          -0.211720          -0.018930           0.063682          -0.223720           0.004791          -4.583230          -5.824065          -0.542050
hessian_block_lv_atom        1       3           0.151986          -0.170215           0.007225          -0.834662          -0.206918          -0.061128           7.785660           7.146636           0.553755
hessian_block_lv_atom        1       4           0.095682           0.192611           0.014248           0.221575           0.137884           0.021760          -1.833754          -4.340849          -0.276775
hessian_block_lv_atom        1       5          -0.064851           0.207662          -0.003292           0.380501          -0.107898           0.013250          -5.841991          -3.759436          -0.295462
hessian_block_lv_atom        1       6           0.107794          -0.200996           0.005201           0.691947           0.250855           0.047851          -4.613722          -2.098410          -0.148270
