# 
# This is the geometry file that corresponds to the current relaxation step.
# If you do not want this file to be written, set the "write_restart_geometry" flag to .false.
#  aims_uuid : 485C0163-5436-4D5E-A578-2F7855B4C815                                
# 
lattice_vector      5.69526863      0.00000000      0.00000000
lattice_vector      0.00000000      5.89257376      0.00000000
lattice_vector      0.00000000      0.00000000    101.32655837
atom_frac       0.71682722     -0.00269725      0.49985675 Se
atom_frac       0.60860216      0.61639955      0.49231422 Pd
atom_frac       0.00043074      0.49724865      0.49985590 Se
atom_frac       0.10856332      0.11644724      0.49231377 Pd
atom_frac       0.21687770      0.73551613      0.48478213 Se
atom_frac       0.50037852      0.23556974      0.48478293 Se
# 
# What follows is the current estimated Hessian matrix constructed by the BFGS algorithm.
# This is NOT the true Hessian matrix of the system.
# If you do not want this information here, switch it off using the "hessian_to_restart_geometry" keyword.
# 
trust_radius             0.1120678586
hessian_block                1       1           0.846574           0.002141           3.358041           0.002141           1.206761          -2.878402           3.358041          -2.878402         268.539086
hessian_block                1       2           0.004040          -0.154941          -0.764647          -0.165227          -0.602543          -4.352781           0.001158          -3.445922         -52.380666
hessian_block                1       3          -0.061105           0.033167          -1.891678           0.032519           0.247669          -2.058443           1.684747          -0.963515          76.031496
hessian_block                1       4          -0.345415          -0.065163           2.959397          -0.163377          -0.019474           0.495120           1.748169          -0.890663         -52.126855
hessian_block                1       5           0.044525           0.088951           1.934540           0.088467          -0.203129           1.863401          -1.671467           2.104501         -43.820999
hessian_block                1       6          -0.199617           0.095845          -5.595653           0.205476          -0.325314           6.931104          -5.120649           6.074002        -105.175256
hessian_block                2       2           1.245818           0.022812           5.008961           0.022812           1.423501           3.704023           5.008961           3.704023         228.080438
hessian_block                2       3          -0.377777           0.162746          -1.831227           0.283512          -0.269893           2.263076          -1.067175          -1.660027         -35.963619
hessian_block                2       4          -0.212040          -0.011595          -1.417472          -0.277907           0.046545          -0.700432          -1.580203           1.651420          71.324240
hessian_block                2       5          -0.417981          -0.091732          -1.693997           0.281147           0.021566           1.939460          -0.953951           1.687136         -51.915736
hessian_block                2       6           0.046940           0.082997          -0.067424          -0.154623          -0.315205          -3.760204          -0.642985          -1.029771         -68.077851
hessian_block                3       3           0.866866          -0.043724          -3.951953          -0.043724           1.406764          -3.027645          -3.951953          -3.027645         259.684938
hessian_block                3       4          -0.000777          -0.124206           0.439660           0.184540          -0.627170          -3.352270           1.417763          -2.699129         -46.471349
hessian_block                3       5          -0.173530          -0.135463           4.983030          -0.279352          -0.192028           6.390865           4.665211           5.196834        -116.297843
hessian_block                3       6           0.035324          -0.012638          -2.088309          -0.057378          -0.261372           2.612593           1.591883           0.325307         -45.916816
hessian_block                4       4           1.197926           0.240589          -4.768883           0.240589           1.400413           4.445283          -4.768883           4.445283         211.396924
hessian_block                4       5           0.018961           0.153547           0.801584          -0.047797          -0.550055          -2.146425           0.142553          -2.358836         -43.739507
hessian_block                4       6          -0.369654          -0.137393           2.381570           0.008172           0.053711          -0.360486           2.644745           1.471136         -49.316646
hessian_block                5       5           0.952303          -0.047622          -4.060243          -0.047622           1.160485          -4.701167          -4.060243          -4.701167         264.229329
hessian_block                5       6          -0.135278           0.005157           1.877897           0.032320           0.067131          -1.928468          -1.964914          -3.346134          82.611562
hessian_block                6       6           0.911286          -0.033967           3.491919          -0.033967           1.085019          -3.494540           3.491919          -3.494540         276.941813
hessian_block_lv             1       1          18.107576           9.290469          -0.468758           9.290469          10.417838          -0.056248          -0.468758          -0.056248           0.071797
hessian_block_lv_atom        1       1          -0.102151           0.182211          -0.004541          -0.520034           0.151689          -0.026253           9.122977           8.905794           0.712389
hessian_block_lv_atom        1       2          -0.185419          -0.208609          -0.018404           0.067152          -0.220023           0.005330          -4.581375          -5.837637          -0.541692
hessian_block_lv_atom        1       3           0.148980          -0.172865           0.006823          -0.832782          -0.208388          -0.061084           7.816983           7.166898           0.556381
hessian_block_lv_atom        1       4           0.101812           0.197799           0.014952           0.212808           0.132363           0.020773          -1.843438          -4.367833          -0.277315
hessian_block_lv_atom        1       5          -0.067259           0.205920          -0.003595           0.381791          -0.107323           0.013394          -5.881212          -3.776815          -0.299798
hessian_block_lv_atom        1       6           0.104036          -0.204456           0.004766           0.691065           0.251682           0.047840          -4.633935          -2.090406          -0.149966
