#=======================================================
# FHI-aims file: geometry.in
# Created using the Atomic Simulation Environment (ASE)
# Thu Mar 19 11:17:13 2020
#=======================================================
lattice_vector 3.1840700000000002 0.0000000000000000 0.0000000000000000 
lattice_vector -1.5920350000000001 2.7574855074279174 0.0000000000000000 
lattice_vector 0.0000000000000000 0.0000000000000000 103.1270000000000095 
atom_frac 0.3333333333333334 0.6666666666666667 0.4848468365474196 Mo
atom_frac 0.0000000000000000 0.0000000000000000 0.5000029062478860 S
atom_frac 0.0000000000000000 0.0000000000000000 0.4696810700653150 S
symmetry_n_params 11 2 9
symmetry_params a1 c3 x0 x1 x2 x3 x4 x5 x6 x7 x8
symmetry_lv a1 , 0 , 0 
symmetry_lv -a1/2 , sqrt(3.0)*a1/2 , 0 
symmetry_lv 0 , 0 , c3
symmetry_frac x0 , x1 , x2
symmetry_frac x3 , x4 , x5
symmetry_frac x6 , x7 , x8
