#=======================================================
# FHI-aims file: ./geometry.in
# Created using the Atomic Simulation Environment (ASE)
# Sun Nov  3 13:16:50 2019
#=======================================================
lattice_vector 3.1840664646845900 0.0000000000000000 0.0000000000000000 
lattice_vector -1.5920332323423001 2.7574824457549600 0.0000000000000000 
lattice_vector 0.0000000000000000 0.0000000000000000 100.0000000000000000 
atom 0.0000000000000000 0.0000000000000000 9.0635563200000000 Mo
atom 1.5920332300000000 0.9191608200000000 10.6271126500000008 S
atom 1.5920332300000000 0.9191608200000000 7.5000000000000000 S
