# 
# This is the geometry file that corresponds to the current relaxation step.
# If you do not want this file to be written, set the "write_restart_geometry" flag to .false.
#  aims_uuid : 9D303E94-0284-4F3E-A409-4ECECCE8A5C0                                
# 
lattice_vector      3.28833689      0.00000000      0.00000000
lattice_vector     -1.64416844      2.84778328      0.00000000
lattice_vector      0.00000000      0.00000000    102.62683748
atom_frac       0.00051266      0.00093030      0.50168779 Se
atom_frac       0.33377205      0.66748563      0.48523800 W
atom_frac       0.00038921      0.00093192      0.46878794 Se
# 
# What follows is the current estimated Hessian matrix constructed by the BFGS algorithm.
# This is NOT the true Hessian matrix of the system.
# If you do not want this information here, switch it off using the "hessian_to_restart_geometry" keyword.
# 
trust_radius             0.0125000002
hessian_block                1       1           1.067170          -0.621169           2.570071          -0.621169           1.413907          -8.098854           2.570071          -8.098854        2257.342015
hessian_block                1       2          -0.986031           0.919220         -11.309638           0.446941          -1.774795          10.596765           7.200744           0.214277       -1001.667996
hessian_block                1       3           0.139366          -0.408304           8.739567           0.063974           0.581393          -2.497911          -9.770815           7.884578       -1036.298115
hessian_block                2       2           2.672543          -2.096791           1.026386          -2.096791           4.351431         -13.399480           1.026386         -13.399480        3892.366694
hessian_block                2       3          -1.466007           1.539597          -8.227130           1.067319          -2.356130          13.185203          10.283252           2.802715       -2671.322794
hessian_block                3       3           1.547146          -1.241546          -0.512437          -1.241546           1.995242         -10.687292          -0.512437         -10.687292        3926.996813
hessian_block_lv             1       1          21.868127           0.330266           0.000000           0.330266           0.018998           0.000000           0.000000           0.000000           0.000000
hessian_block_lv_atom        1       1           0.075434           0.018865           0.000000          -0.221311          -0.026739           0.000000          91.562738           5.072061           0.000000
hessian_block_lv_atom        1       2          -0.222225          -0.036101           0.000000          -0.324451           0.021621           0.000000          33.893816           2.359870           0.000000
hessian_block_lv_atom        1       3           0.146791           0.017236           0.000000           0.545763           0.005118           0.000000        -125.456554          -7.431931           0.000000
