# 
# This is the geometry file that corresponds to the current relaxation step.
# If you do not want this file to be written, set the "write_restart_geometry" flag to .false.
#  aims_uuid : 4DE3819E-ED19-4AC5-AC80-976EDC1D5637                                
# 
lattice_vector      5.84571036      0.00000000      0.00000000
lattice_vector      0.00000000      5.95366867      0.00000000
lattice_vector      0.00000000      0.00000000      7.50944703
atom_frac       0.50213708      0.00221015      0.00212401 Pd
atom_frac       0.00212490      0.00218290      0.50222916 Pd
atom_frac       0.00225878      0.50216059      0.00208818 Pd
atom_frac       0.50221835      0.50219911      0.50224999 Pd
atom_frac       0.61429895      0.12056125      0.40545788 Se
atom_frac       0.88994529      0.88377197      0.90545671 Se
atom_frac       0.11438742      0.38382032      0.59891234 Se
atom_frac       0.39010446      0.62055875      0.09889319 Se
atom_frac       0.39002717      0.88383705      0.59892448 Se
atom_frac       0.11430285      0.12048366      0.09889776 Se
atom_frac       0.89002375      0.62055309      0.40546393 Se
atom_frac       0.61431673      0.38380690      0.90544808 Se
# 
# What follows is the current estimated Hessian matrix constructed by the BFGS algorithm.
# This is NOT the true Hessian matrix of the system.
# If you do not want this information here, switch it off using the "hessian_to_restart_geometry" keyword.
# 
trust_radius             0.0488394112
hessian_block                1       1           5.999150           0.037865          -2.129672           0.037865           6.511082          -1.279404          -2.129672          -1.279404           4.692524
hessian_block                1       2          -0.079780           0.546234          -0.117557           0.268741           0.225838          -0.344451          -0.145803           0.150202          -0.076141
hessian_block                1       3          -0.127347           0.637685          -0.213005          -0.036215          -0.065583           0.109330          -0.164397           0.035477          -0.121623
hessian_block                1       4           0.525510           0.148220          -0.040298           0.115421          -0.478599          -0.189266           0.017365           0.063371          -0.026248
hessian_block                1       5           0.000014          -0.503503          -0.062130          -0.392002           0.357151           0.173441          -0.180198           0.071066           0.241929
hessian_block                1       6          -1.771184           0.030915           0.798322           0.505911          -0.558955          -0.010706           1.532880          -0.505944          -0.333699
hessian_block                1       7          -0.342907           0.234234           0.056170           0.144617           0.099736           0.160148           0.039091           0.210914           0.112375
hessian_block                1       8          -0.219096          -0.314767           0.272668          -0.326071          -1.961247           0.871446          -0.011040           0.875355          -0.520172
hessian_block                1       9          -0.164403           0.130682           0.143551          -0.389955          -0.376115           0.044125          -0.094008           0.016841           0.101808
hessian_block                1      10          -2.347704           0.739865           0.870838          -0.067908          -0.256912          -0.563481           0.549250          -0.188340          -0.712353
hessian_block                1      11           0.064458          -0.554746           0.012264           0.262349           0.173012           0.157873           0.144576           0.109346           0.253894
hessian_block                1      12           0.029198          -1.132683           0.408849          -0.122751          -2.022386           0.870943           0.441958           0.441120          -0.510430
hessian_block                2       2           6.143593           0.395621           2.533609           0.395621           7.326051           2.197067           2.533609           2.197067           5.397705
hessian_block                2       3           1.000617           0.931346           0.791594          -0.417649          -0.510610          -0.371176           0.140458           0.037143           0.250493
hessian_block                2       4           0.181402           0.634091           0.159312          -0.488852           0.681984           0.422115           0.154706           0.623075           0.334875
hessian_block                2       5          -2.139187           0.058984          -1.117410           0.573128          -0.598058           0.120859          -0.773546          -0.329026          -0.795669
hessian_block                2       6          -0.533075          -0.118857          -0.150922          -0.462235          -1.066002          -0.775131          -0.679767          -0.889350          -1.041243
hessian_block                2       7          -0.072757          -0.754541          -0.242300          -0.515684          -1.657461          -0.860076          -0.212879          -1.228383          -0.730576
hessian_block                2       8          -0.200838          -0.677092          -0.414781           0.036364          -0.395805          -0.345310           0.082429          -0.048892           0.209429
hessian_block                2       9          -1.968333           0.365639          -0.930146           0.551265          -0.883290          -0.016527          -1.018571           0.020212          -0.580373
hessian_block                2      10           0.521682          -0.061573           0.323686           0.454296           1.217960           1.208350           0.519395           1.086290           1.023085
hessian_block                2      11          -0.580811          -0.695107          -0.404801          -0.528748          -3.264595          -1.899233          -0.222747          -1.041097          -0.706289
hessian_block                2      12          -0.706606          -0.347250          -0.402037          -0.143737           0.571014           0.168860          -0.405529          -0.082590          -0.183429
hessian_block                3       3           6.755527          -0.515460           2.323447          -0.515460           6.344444          -1.274880           2.323447          -1.274880           4.730778
hessian_block                3       4           0.301166          -0.300086          -0.020818          -0.260822           0.093006          -0.069165           0.353437          -0.184302           0.129448
hessian_block                3       5          -0.650097           0.108216          -0.236282          -0.074232           0.425623           0.177016          -0.057229           0.139935           0.143001
hessian_block                3       6          -0.728687           0.522907          -0.410029          -0.296679          -1.735501           0.759434          -1.321729           1.104295          -0.925321
hessian_block                3       7           0.018894           0.142914           0.072020           0.098323          -0.105232           0.124861          -0.223999           0.104199          -0.035922
hessian_block                3       8          -2.108497          -0.053482          -0.929079          -0.758500          -0.352384          -0.439896          -0.777568          -0.246474          -0.412421
hessian_block                3       9          -0.199435           0.392475           0.115829          -0.093546          -0.128467           0.003063          -0.362840           0.271320           0.049058
hessian_block                3      10           0.470263           0.407281           0.101440           1.499981          -2.258926           1.175984           0.680424           0.498797          -0.225515
hessian_block                3      11          -0.472260           0.079784          -0.070296          -0.632881           0.242254          -0.287371           0.006075           0.072975           0.133697
hessian_block                3      12          -2.694231          -0.330684          -0.922294          -0.535220          -0.301598          -0.241665          -1.198604          -0.224022          -0.613810
hessian_block                4       4           5.993441           0.194280          -1.960981           0.194280           7.000599           1.572672          -1.960981           1.572672           4.944553
hessian_block                4       5          -0.428922           0.660811           0.126574           0.108345          -2.244887          -1.031716           0.012617          -1.359163          -0.710226
hessian_block                4       6          -0.085419           0.411317           0.001688          -0.239493          -0.472653          -0.454734           0.249639          -0.326576          -0.429477
hessian_block                4       7          -1.991815          -0.860549           0.761501          -0.153585          -0.182701           0.264555           0.701593          -0.175728          -0.604635
hessian_block                4       8          -0.451078          -0.297992          -0.227706           0.076212          -0.485846          -0.186650          -0.192738          -0.055694           0.081177
hessian_block                4       9          -0.344355           0.601033           0.160336           0.058696          -2.285303          -1.113337           0.020629          -0.851460          -0.535346
hessian_block                4      10          -0.367075          -0.374994          -0.000215          -0.144919           0.882566           0.605471           0.065548           0.588138           0.549743
hessian_block                4      11          -1.844127          -0.099342           0.764874          -0.846282          -1.349447          -0.335786           0.975070           0.029765          -0.591734
hessian_block                4      12           0.077179           0.399691          -0.151582           0.464522           0.488305           0.177382           0.030428           0.414359          -0.040265
hessian_block                5       5           5.513193          -0.356236          -0.997395          -0.356236           6.413285          -1.111093          -0.997395          -1.111093           7.772078
hessian_block                5       6           0.106639          -0.501161          -0.227104           0.155875          -0.444150           0.650643           0.404285          -0.921057           0.912619
hessian_block                5       7          -0.207358           1.132849          -0.080081          -0.926423          -0.006779           0.390632           0.261816           0.746427          -1.046475
hessian_block                5       8          -0.136554           0.019088           0.368979           0.629883           0.000943          -0.347212           0.248181           0.704402          -1.000356
hessian_block                5       9          -1.553127          -0.461296           1.614845          -0.518688          -1.955047           2.297393           1.622297           2.487655          -3.470014
hessian_block                5      10          -0.004215           0.664669           0.265431           0.046760           0.369017          -0.736997          -0.079155           0.118874          -1.155409
hessian_block                5      11           0.383601          -1.000637           0.223698           1.085874           0.058107           0.132634          -0.408915          -0.290315           1.329193
hessian_block                5      12           0.681921           0.287485          -0.170016          -0.441556          -0.728181           0.201183           0.238133          -1.174496           0.881191
hessian_block                6       6           5.683713           0.549538           2.214630           0.549538           6.193152           2.443542           2.214630           2.443542          10.603292
hessian_block                6       7           0.015949          -0.228151          -0.134465           0.484047           0.322250           0.807497          -0.186762          -0.116888          -0.696320
hessian_block                6       8           0.189042           0.556276           0.591085           0.029994           0.233272           0.601819          -0.279817          -0.472407          -1.621229
hessian_block                6       9           0.236527           0.209918          -0.021051           0.382488           0.991854           0.678241          -0.159242          -0.326597          -1.134597
hessian_block                6      10          -1.982457          -1.460654          -3.461997          -1.317182          -2.572112          -3.945168          -2.238909          -2.867517          -5.492631
hessian_block                6      11           0.259252           0.558198           0.187106          -0.667770           0.696504           0.683968          -0.293271           0.432564           0.933011
hessian_block                6      12           0.175609           0.151497           0.439386           0.193763           0.059367           0.268732           0.931413           0.737798           2.327462
hessian_block                7       7           5.372406           0.410113           1.269929           0.410113           6.166634          -1.489630           1.269929          -1.489630           7.867487
hessian_block                7       8          -0.142989          -0.155066           0.067570           0.156031          -0.396534           0.727976           0.315431          -0.595345           1.244163
hessian_block                7       9           0.274429           0.614693          -0.129580          -0.631465          -0.358554          -0.542963           0.500578          -0.494400           1.354763
hessian_block                7      10           0.208023          -0.614498           0.132611           0.275497          -0.522905          -0.250986          -0.350175          -0.897592           0.592720
hessian_block                7      11          -1.814420           0.564883          -1.896898           0.709053          -2.311764           2.717397          -1.593507           2.262920          -3.552448
hessian_block                7      12           0.248452           0.048580           0.177509          -0.585981           0.600331          -0.702336          -0.575103           0.326430          -1.403269
hessian_block                8       8           5.553781          -0.131719          -1.084843          -0.131719           5.772389           1.288511          -1.084843           1.288511           7.590282
hessian_block                8       9           0.596859          -0.652613          -0.156861           0.506329           0.085096          -0.433754          -0.014849           0.375183           1.294327
hessian_block                8      10          -0.330667          -0.117357           0.565056          -0.918831          -0.491033           0.705361          -0.539861          -0.296218           1.219398
hessian_block                8      11           0.343491          -0.251652          -0.303327           0.623188           1.206956           0.429100           0.110325          -0.464702          -1.124234
hessian_block                8      12          -1.527542           1.309428           1.595096           0.844071          -1.568785          -2.150163           1.800493          -1.784949          -3.858502
hessian_block                9       9           5.244344          -0.367410          -0.723898          -0.367410           6.521177          -1.686576          -0.723898          -1.686576           7.733600
hessian_block                9      10          -0.195430           0.097461           0.239858          -0.318145          -0.469027           0.235586          -0.311840          -0.448328           0.873622
hessian_block                9      11          -0.083273           0.907133          -0.400545          -0.743745           0.606317           0.543327           0.251569           0.277766          -1.177542
hessian_block                9      12          -0.277893          -0.502309           0.390593           0.228769          -0.101619          -0.591089          -0.012753           0.940899          -1.407441
hessian_block               10      10           5.965897           0.930106           1.989036           0.930106           7.550941           2.938995           1.989036           2.938995           8.993483
hessian_block               10      11          -0.170263          -0.311109           0.160375           0.285850          -1.535709          -0.486602           0.033491          -0.745523          -1.057802
hessian_block               10      12          -0.202146          -0.128546          -0.444083          -0.496152          -0.266835          -0.046499          -1.059235          -0.627590          -1.506479
hessian_block               11      11           5.511106           0.321898           0.995518           0.321898           7.962604          -1.220494           0.995518          -1.220494           7.781228
hessian_block               11      12          -0.030844           0.131216           0.001814           0.480697          -0.837219           0.576796           0.732031          -0.434817           0.880889
hessian_block               12      12           5.792814           0.113575          -0.923234           0.113575           5.754632           1.467858          -0.923234           1.467858           8.535947
hessian_block_lv             1       1          21.515097          -3.712929           3.891569          -3.712929          23.736520           2.762796           3.891569           2.762796           1.699171
hessian_block_lv_atom        1       1           0.574014          -0.084257           0.022804          -0.939165           0.346578          -0.182364          -0.536159           0.278630          -0.001186
hessian_block_lv_atom        1       2          -1.160130           0.200475          -0.148236          -0.873424           0.935177           0.019715          -0.416042           0.317257          -0.008303
hessian_block_lv_atom        1       3          -1.643345           0.457633          -0.245086           0.544786           0.136334           0.029023          -0.919152           0.538957          -0.034190
hessian_block_lv_atom        1       4          -0.048070           0.083446          -0.023466           0.605479           0.633086           0.194146           0.018994           0.074897           0.019090
hessian_block_lv_atom        1       5           0.672175          -0.322328           0.311153          -0.773945           1.011047           0.237024          -1.711963          -2.747702          -1.406466
hessian_block_lv_atom        1       6           1.580742          -1.381095          -0.151210           0.935562          -1.585295          -0.206315           0.464178          -4.770306          -1.485409
hessian_block_lv_atom        1       7          -1.321895          -0.029321           0.026494          -0.451367          -1.044295          -0.455577           1.799837           2.215558           1.398211
hessian_block_lv_atom        1       8           1.005786          -0.356161          -0.213132           0.289233          -0.306699           0.216441           0.982744           3.036182           1.418845
hessian_block_lv_atom        1       9           0.346690           0.235988          -0.172351           0.530655          -1.505586          -0.345772           1.888718           2.593868           1.462475
hessian_block_lv_atom        1      10          -1.989946           1.543794           0.238099          -1.109044           1.588971           0.288672           0.323236           4.357133           1.438109
hessian_block_lv_atom        1      11           1.516812          -0.163882           0.003972           0.956120          -0.014847           0.351996          -1.600934          -2.519801          -1.377124
hessian_block_lv_atom        1      12           0.467167          -0.184291           0.350960           0.285109          -0.194472          -0.146990          -0.293460          -3.374673          -1.424052
