# 
# This is the geometry file that corresponds to the current relaxation step.
# If you do not want this file to be written, set the "write_restart_geometry" flag to .false.
#  aims_uuid : 4139FA59-0B71-4B68-A943-FF0BC8ED57C8                                
# 
lattice_vector      5.85112319      0.00000000      0.00000000
lattice_vector      0.00000000      5.95725158      0.00000000
lattice_vector      0.00000000      0.00000000      7.44916866
atom_frac       0.50225141      0.00169185      0.00158084 Pd
atom_frac       0.00167997      0.00168173      0.50238321 Pd
atom_frac       0.00174196      0.50225942      0.00158720 Pd
atom_frac       0.50231386      0.50225145      0.50237901 Pd
atom_frac       0.61410066      0.11974307      0.40423906 Se
atom_frac       0.89101731      0.88481430      0.90472602 Se
atom_frac       0.11350857      0.38426835      0.60041482 Se
atom_frac       0.39043052      0.62032122      0.09973154 Se
atom_frac       0.39045415      0.88482572      0.60041634 Se
atom_frac       0.11351768      0.11972948      0.09972660 Se
atom_frac       0.89101522      0.62032079      0.40424653 Se
atom_frac       0.61411443      0.38423835      0.90471455 Se
# 
# What follows is the current estimated Hessian matrix constructed by the BFGS algorithm.
# This is NOT the true Hessian matrix of the system.
# If you do not want this information here, switch it off using the "hessian_to_restart_geometry" keyword.
# 
trust_radius             0.0122098528
hessian_block                1       1           6.261062          -0.439606          -2.377772          -0.439606           7.299472          -0.767157          -2.377772          -0.767157           4.881133
hessian_block                1       2          -0.600911           1.478587           0.387502          -0.403340           1.469917           0.276060          -0.498349           0.786560           0.262926
hessian_block                1       3          -0.918948           2.037416           0.567271           0.127527          -0.427241           0.002080          -0.687329           1.035546           0.336853
hessian_block                1       4           0.527006           0.196575          -0.080461           0.092791          -0.427451          -0.174988          -0.054039           0.184157           0.049061
hessian_block                1       5           0.371169          -1.157823          -0.439495          -0.965687           1.394979           0.715246          -0.102027          -0.033206           0.127441
hessian_block                1       6          -0.954208          -1.516632           0.079480           1.368522          -2.095720          -0.845287           2.944286          -3.226540          -1.570560
hessian_block                1       7          -0.818820           1.081309           0.511790           0.312249          -0.149867          -0.035599           0.237935          -0.164406          -0.053426
hessian_block                1       8           0.161529          -1.209349           0.073961          -0.086418          -2.371783           0.618495          -0.390612           1.626757          -0.194158
hessian_block                1       9          -0.149083           0.038689           0.187189           0.249480          -1.584116          -0.521010           0.014398          -0.178587           0.009975
hessian_block                1      10          -3.329609           2.641935           1.707533          -1.041581           1.526832           0.343865          -0.455571           1.689387           0.216070
hessian_block                1      11           0.672858          -1.638437          -0.571280           0.723084          -0.698111          -0.259979           0.213044           0.059364           0.120553
hessian_block                1      12           0.343865          -1.512663          -0.045717           0.062980          -2.289889           0.648271           1.156038          -1.011872          -1.084003
hessian_block                2       2           7.179189           1.732002           3.234596           1.732002           9.013186           3.087446           3.234596           3.087446           5.864858
hessian_block                2       3           2.566019           2.950926           1.845128          -0.758081          -0.908758          -0.595434           1.190019           1.352791           0.953071
hessian_block                2       4           0.189305           0.602372           0.155343          -0.447956           0.714163           0.438645           0.294567           0.805692           0.428116
hessian_block                2       5          -2.887239          -0.957016          -1.641539           1.700472           0.813988           0.863989          -0.918032          -0.543470          -0.886234
hessian_block                2       6          -2.156997          -2.116092          -1.219739          -2.152985          -3.194662          -1.888705          -3.523355          -4.450019          -2.935134
hessian_block                2       7           0.851524           0.401233           0.363416          -0.824973          -2.062477          -1.060323          -0.606061          -1.693811          -0.989915
hessian_block                2       8          -0.987448          -1.497116          -0.898936          -0.446528          -1.063275          -0.687759           0.853856           0.926225           0.724138
hessian_block                2       9          -1.999270           0.412232          -0.926256          -0.712086          -2.431490          -0.841107          -1.230710          -0.237121          -0.726673
hessian_block                2      10           2.488045           2.351022           1.621494           2.376910           3.610073           2.470575           2.526508           3.628871           2.356677
hessian_block                2      11          -1.769100          -2.183581          -1.186788          -1.458984          -4.441255          -2.522850          -0.341542          -1.260171          -0.790114
hessian_block                2      12          -1.307208          -1.292638          -0.848369          -0.486373           0.127617          -0.051036          -1.867347          -1.892493          -1.159850
hessian_block                3       3           9.112964          -1.040944           3.920246          -1.040944           6.397863          -1.563018           3.920246          -1.563018           5.741062
hessian_block                3       4           0.314894          -0.257769          -0.059301          -0.205480           0.093536          -0.041465           0.562174          -0.235841           0.276594
hessian_block                3       5          -1.800053           0.375454          -1.022589           1.614003           0.077528           1.295099          -0.268368           0.218551          -0.040116
hessian_block                3       6          -3.174471           0.967550          -1.964635          -2.821992          -1.192917          -0.936715          -5.648898           1.873682          -3.654550
hessian_block                3       7           1.397205          -0.148247           0.994814          -0.349629           0.029223          -0.219897          -0.809815           0.208435          -0.402536
hessian_block                3       8          -3.297881           0.005721          -1.521498          -1.501275          -0.167841          -0.959093           0.407523          -0.443456           0.322630
hessian_block                3       9          -0.233905           0.333783           0.158995          -1.991813           0.215348          -1.206146          -0.680469           0.334471          -0.154343
hessian_block                3      10           3.447134          -0.101573           1.958145           4.378883          -2.836375           3.065229           3.720841          -0.091208           1.748418
hessian_block                3      11          -2.245155           0.457490          -1.257724          -2.045850           0.511892          -1.195457          -0.169092           0.177282          -0.059793
hessian_block                3      12          -3.601891           0.039089          -1.709144          -1.024249          -0.145233          -0.626873          -3.446539           0.114454          -1.965427
hessian_block                4       4           5.955302           0.174397          -1.956949           0.174397           6.986661           1.577526          -1.956949           1.577526           4.962316
hessian_block                4       5          -0.471719           0.591097           0.025472           0.078490          -2.234683          -0.880009          -0.008556          -1.374340          -0.723217
hessian_block                4       6          -0.003134           0.405931          -0.223074          -0.209364          -0.489486          -0.679108           0.359883          -0.401734          -0.824690
hessian_block                4       7          -2.019825          -0.858301           0.885547          -0.165074          -0.183322           0.227506           0.728465          -0.163225          -0.660630
hessian_block                4       8          -0.273186          -0.227391          -0.347809           0.036152          -0.537426          -0.251236          -0.225710          -0.022932           0.189255
hessian_block                4       9          -0.269226           0.653971           0.152206           0.131953          -2.282726          -1.287412           0.028072          -0.848638          -0.567021
hessian_block                4      10          -0.480461          -0.360702           0.275658          -0.207172           0.892519           0.863726           0.017639           0.646688           0.822169
hessian_block                4      11          -1.816135          -0.105257           0.605934          -0.828355          -1.379354          -0.463086           0.921768          -0.005637          -0.599843
hessian_block                4      12          -0.086913           0.286901          -0.219690           0.447795           0.494593           0.138086           0.119808           0.370097          -0.250245
hessian_block                5       5           5.920721          -1.281674          -0.940148          -1.281674           7.550248          -1.307599          -0.940148          -1.307599           7.739733
hessian_block                5       6           1.447121          -2.127074           0.084749           1.534982          -2.154843           0.923548           2.473692          -3.987151           1.351617
hessian_block                5       7          -1.007088           2.037951          -0.262109          -0.639062          -0.298502           0.441293           0.648164           0.403456          -0.938583
hessian_block                5       8           0.673423          -0.615700           0.614437           0.875543          -0.611072          -0.319756          -0.257987           1.581755          -1.102816
hessian_block                5       9          -1.374442          -0.360052           1.690603           0.550423          -3.201781           2.549118           1.841303           2.306558          -3.394242
hessian_block                5      10          -1.584968           2.665659          -0.112522          -1.521907           2.306193          -1.054751          -1.530792           2.293952          -1.431245
hessian_block                5      11           1.388298          -2.177670           0.439851           1.739295          -0.960168           0.252747          -0.413490          -0.501909           1.278439
hessian_block                5      12           0.890687          -0.568717          -0.217875          -0.109313          -1.034864           0.247862           1.257409          -2.783389           1.121086
hessian_block                6       6           7.952395           3.017668           6.469026           3.017668           8.757616           7.086106           6.469026           7.086106          17.885614
hessian_block                6       7          -1.285339          -1.589211          -2.694972           0.942198           0.746736           1.780836           0.291644           0.412464           0.362770
hessian_block                6       8           0.931148           1.575738           2.224247           0.926891           1.141967           1.967835          -1.481821          -1.800003          -3.534672
hessian_block                6       9           0.038152           0.082725          -0.087064           2.120571           2.883173           3.992057           0.098696          -0.044169          -0.516596
hessian_block                6      10          -4.741687          -4.507432          -8.510672          -4.074426          -5.488758          -9.095339          -5.304854          -6.139371         -10.753881
hessian_block                6      11           1.955291           2.326981           3.468133           0.764186           2.231808           3.099338           0.067766           0.717945           1.402414
hessian_block                6      12           1.557639           1.374367           2.525695           0.689227           0.502111           1.360927           3.102761           3.193295           5.889535
hessian_block                7       7           6.079791           0.194479           1.024028           0.194479           6.200675          -1.416159           1.024028          -1.416159           7.929957
hessian_block                7       8          -0.626835           0.085485           0.164216          -0.373973          -0.211060           0.991870           1.074274          -0.905130           0.914444
hessian_block                7       9           0.394961           0.582887          -0.243726          -1.625681          -0.011457          -0.190854           0.380047          -0.465004           1.372935
hessian_block                7      10           1.831180          -1.217874          -0.473759           1.823928          -1.032362          -0.851136           1.464577          -1.555503          -0.174669
hessian_block                7      11          -2.738082           0.847366          -1.558102          -0.141565          -1.998844           3.088566          -1.795239           2.308944          -3.422720
hessian_block                7      12          -0.492763           0.231948           0.597012          -0.801918           0.618280          -0.625202          -1.946174           0.899036          -0.835764
hessian_block                8       8           5.234942           0.451219          -1.561913           0.451219           5.916072           0.957611          -1.561913           0.957611           8.061341
hessian_block                8       9           0.206648          -0.509312          -0.186791           1.037915           0.802016          -1.383648           0.052523           0.523250           1.090872
hessian_block                8      10          -1.200592          -1.176600           1.961233          -1.959868          -1.532403           2.161405          -1.832791          -1.245924           2.613762
hessian_block                8      11           1.006750           0.413110          -1.261245           1.241229           1.634556          -0.196830           0.498659          -0.488533          -1.231649
hessian_block                8      12          -0.262585           1.391192           1.069193           1.112119          -1.352728          -2.501754           2.534904          -1.106763          -4.751284
hessian_block                9       9           5.026282          -0.551192          -0.789408          -0.551192           7.851093          -1.496708          -0.789408          -1.496708           7.723111
hessian_block                9      10           0.023736          -2.026161          -0.096102          -0.140904          -2.579032          -0.094328          -0.310777          -2.837258           0.424972
hessian_block                9      11          -0.211617           2.202342          -0.229190          -0.726964           1.720648           0.760678           0.400124           0.578809          -1.096186
hessian_block                9      12           0.113674           0.614249           0.610841           0.184137           0.265346          -0.560402          -0.045095           2.644160          -1.064939
hessian_block               10      10           9.284158           4.309165           5.655961           4.309165          10.840254           6.596303           5.655961           6.596303          12.749407
hessian_block               10      11          -2.277431          -2.325449          -2.158718          -1.416465          -3.251583          -2.213041          -0.408046          -1.097731          -1.335590
hessian_block               10      12          -1.893596          -1.617578          -1.792018          -1.160970          -0.808334          -0.772896          -3.578923          -3.307815          -4.134227
hessian_block               11      11           6.717864           1.412435           1.228357           1.412435           8.759853          -1.106088           1.228357          -1.106088           7.683262
hessian_block               11      12           0.882368           0.737955          -0.202311           0.770670          -0.482421           0.617727           2.480772           0.755998           1.153091
hessian_block               12      12           5.422634           0.315896           0.232384           0.315896           5.752548           2.125292           0.232384           2.125292          10.183892
hessian_block_lv             1       1          23.551543          -3.512870           5.357999          -3.512870          23.705818           2.808999           5.357999           2.808999           2.546174
hessian_block_lv_atom        1       1          -0.143116          -0.115843          -0.426311           0.239043           0.445427           0.671613           0.240911           0.274196           0.390868
hessian_block_lv_atom        1       2           0.210115           0.265290           0.729596           1.028974           1.029271           1.178851           0.531751           0.372607           0.597495
hessian_block_lv_atom        1       3           0.451846           0.584772           1.125647           0.013521           0.151380          -0.208333           0.583486           0.581127           0.831474
hessian_block_lv_atom        1       4           0.022537           0.063202          -0.055769           0.737609           0.658072           0.266004           0.204317           0.093003           0.151975
hessian_block_lv_atom        1       5          -0.221039          -0.344938          -0.311216           0.861827           1.122488           1.249728          -1.939479          -2.819960          -1.652978
hessian_block_lv_atom        1       6          -0.819789          -1.490249          -1.531354          -1.489593          -1.771689          -1.751467          -3.628254          -4.901671          -3.873383
hessian_block_lv_atom        1       7           0.067997           0.084479           0.892367          -0.913531          -1.127293          -0.812671           1.242377           2.205240           1.115478
hessian_block_lv_atom        1       8          -0.410234          -0.347355          -0.766304          -0.249446          -0.318872          -0.179783           2.124223           3.068712           2.088195
hessian_block_lv_atom        1       9           0.133274           0.233094          -0.177208          -1.405016          -1.616594          -1.468897           1.617170           2.601424           1.337081
hessian_block_lv_atom        1      10           0.927036           1.640977           1.868340           1.677950           1.771140           1.998808           3.202174           4.508451           3.219736
hessian_block_lv_atom        1      11          -0.209687          -0.294483          -1.076462          -0.309589          -0.054190          -0.413180          -1.737656          -2.597584          -1.621201
hessian_block_lv_atom        1      12          -0.008939          -0.278945          -0.271324          -0.191751          -0.289141          -0.530674          -2.441022          -3.385546          -2.584741
symmetry_n_params 39 3 36
symmetry_params a1 b2 c3 x0 x1 x2 x3 x4 x5 x6 x7 x8 x9 x10 x11 x12 x13 x14 x15 x16 x17 x18 x19 x20 x21 x22 x23 x24 x25 x26 x27 x28 x29 x30 x31 x32 x33 x34 x35
symmetry_lv a1 , 0 , 0 
symmetry_lv 0 , b2 , 0 
symmetry_lv 0 , 0 , c3
symmetry_frac x0 , x1 , x2
symmetry_frac x3 , x4 , x5
symmetry_frac x6 , x7 , x8
symmetry_frac x9 , x10 , x11
symmetry_frac x12 , x13 , x14
symmetry_frac x15 , x16 , x17
symmetry_frac x18 , x19 , x20
symmetry_frac x21 , x22 , x23
symmetry_frac x24 , x25 , x26
symmetry_frac x27 , x28 , x29
symmetry_frac x30 , x31 , x32
symmetry_frac x33 , x34 , x35
