# 
# This is the geometry file that corresponds to the current relaxation step.
# If you do not want this file to be written, set the "write_restart_geometry" flag to .false.
#  aims_uuid : 386A114F-3145-49FE-A086-F92331FF4A01                                
# 
lattice_vector      3.28799137      0.00000000      0.00000000
lattice_vector     -1.64399569      2.84748405      0.00000000
lattice_vector      0.00000000      0.00000000     13.22700657
atom_frac       0.33004771      0.66535367      0.25332356 W
atom_frac       0.67662824      0.34132593      0.75334266 W
atom_frac       0.34318342      0.67454681      0.88093066 Se
atom_frac       0.66347260      0.33210569      0.38090628 Se
atom_frac       0.66347799      0.33209906      0.12573377 Se
atom_frac       0.34317406      0.67455287      0.62574710 Se
# 
# What follows is the current estimated Hessian matrix constructed by the BFGS algorithm.
# This is NOT the true Hessian matrix of the system.
# If you do not want this information here, switch it off using the "hessian_to_restart_geometry" keyword.
# 
trust_radius             0.0010599546
hessian_block                1       1         479.232664         165.376011          -6.220166         165.376011          73.593432           5.817860          -6.220166           5.817860         277.778140
hessian_block                1       2        -467.397638        -169.809028          15.342314        -170.038257         -61.196505           7.415517          -4.410361           2.447612         114.176288
hessian_block                1       3          -0.011380           0.137996          -2.232006           5.615878           1.052148          -6.913738          57.384754          18.168494         -34.713562
hessian_block                1       4          -4.950705           2.323696          -0.573793          -4.199597          -7.324801          -1.503349          55.861010           9.604262        -192.952894
hessian_block                1       5          -3.601723           3.524504           3.826901          -5.526960          -8.543578          -5.990857         -56.337280         -16.501892         -81.525655
hessian_block                1       6          -2.411985          -1.982796         -10.143249           8.343309           3.278537           1.174567         -46.277957         -19.536336         -68.314327
hessian_block                2       2         475.733913         164.555959          15.167829         164.555959          72.462891          10.803870          15.167829          10.803870         339.771157
hessian_block                2       3          -3.813530           3.284555          -1.218365          -4.444052          -8.125309          -9.044320         -59.598285         -20.300341        -128.659990
hessian_block                2       4          -0.034926          -0.494026          -2.204033           7.071284           2.631528           0.314582         -66.690356         -28.387710        -129.024370
hessian_block                2       5          -0.219097           0.242419           2.945332           7.243220           1.909877          -4.840262          56.867015          20.404983           4.576340
hessian_block                2       6          -3.409489           2.019734         -10.280402          -5.046999          -6.823249           0.318517          38.911483          10.063682        -186.391435
hessian_block                3       3           3.489968          -2.445955           0.873163          -2.445955           5.263716           1.762077           0.873163           1.762077         132.482109
hessian_block                3       4          -0.320851           0.826657          -0.117030           0.007782          -0.057331          -0.309979           1.935716          10.315105          40.268042
hessian_block                3       5           0.007043          -0.430357          -1.113444          -0.307549           1.188059           0.658295          -0.268936          -1.852407          -3.856793
hessian_block                3       6           1.507984           0.448215           2.570842          -1.106445           1.537949           0.021455           0.910428           5.733284           8.928185
hessian_block                4       4           3.730797          -2.037025           1.203841          -2.037025           3.549195           1.423528           1.203841           1.423528         257.931736
hessian_block                4       5           1.724154          -1.399851          -4.593912          -0.749389           2.218800           7.282428           0.307166          -0.422395         -34.259059
hessian_block                4       6           0.710765           0.127791          12.283700          -0.299529          -0.158158          -0.237613           1.383850           0.497613          72.484535
hessian_block                5       5           3.371921          -2.354547           1.123526          -2.354547           4.533196          -1.200617           1.123526          -1.200617         124.946135
hessian_block                5       6          -0.423065           1.265609          -1.691491          -0.011784          -0.447121          -0.427671          -2.188403           4.091013           4.567022
hessian_block                6       6           4.885022          -2.308169           7.260599          -2.308169           3.471275          -0.849255           7.260599          -0.849255         183.174010
hessian_block_lv             1       1          53.029274           4.755269           0.000000           4.755269           2.296599           0.000000           0.000000           0.000000           0.000000
hessian_block_lv_atom        1       1          18.995242           9.273259           0.000000           6.350049           2.358977           0.000000         -21.045650          -8.645044           0.000000
hessian_block_lv_atom        1       2         -20.155003         -10.209961           0.000000          -9.663947          -4.129667           0.000000         -11.710532          -9.735070           0.000000
hessian_block_lv_atom        1       3          -0.680013          -0.028264           0.000000           2.421588           1.112084           0.000000          15.207337           8.375747           0.000000
hessian_block_lv_atom        1       4           0.936592           0.279889           0.000000          -0.464474           0.015724           0.000000          41.861942          18.643955           0.000000
hessian_block_lv_atom        1       5           0.120655          -0.295000           0.000000           0.370447           0.585666           0.000000         -15.074692          -7.865973           0.000000
hessian_block_lv_atom        1       6           0.782527           0.980077           0.000000           0.986337           0.057216           0.000000          -9.238405          -0.773617           0.000000
