#===============================================================================
# FHI-aims file: ./control.in
# Created using the Atomic Simulation Environment (ASE)
# Fri Nov 22 16:42:51 2019
# 
# List of parameters used to initialize the calculator:
#     species_dir : /chemsoft/FHI-aims/stable/species_defaults/tight
#     k_grid : [18, 18, 1]
#     adjust_scf : once 2
#     spin : none
#     xc : pbe
#     relativistic : ('atomic_zora', 'scalar')
#===============================================================================
k_grid                             18 18 1
adjust_scf                         once 2
### band structure section 
output band 0.000000 0.000000 0.000000    0.500000 0.000000 0.000000  31  G M
output band 0.500000 0.000000 0.000000    0.333333 0.333333 0.000000  31  M K
output band 0.333333 0.333333 0.000000    0.000000 0.000000 0.000000  31  K G
spin                               collinear
fixed_spin_moment 3
xc                                 pbe
relativistic                       atomic_zora scalar
output atom_proj_dos  -10 0 300 0.05
dos_kgrid_factors 4 4 4 
#===============================================================================

################################################################################
#
#  FHI-aims code project
# Volker Blum, Fritz Haber Institute Berlin, 2010
#
#  Suggested "tight" defaults for Mn atom (to be pasted into control.in file)
#
#  2016/04/21, VB:
#  Comment. Fe and Mn are outliers in the "Delta project", 
#  https://molmod.ugent.be/deltacodesdft . Not by much; in principle
#  consistent with a reasonable designation "tight". 
#
#  However, uncommenting the "d" and "p" function in tier2 of Fe picks up
#  most of the missing total energy of a Fe bulk in DFT-GGA. This is similar
#  to our "tight" defaults for Ni and Co.
#
#  These two basis functions can be enabled by hand below if needed. I am
#  considering making them part of the default; what is keeping me is the 
#  question if this warrants the additional significant CPU time cost
#  for every user expecting "tight".
#
################################################################################
  species        Mn
#     global species definitions
    nucleus             25
    mass                54.938045
#
    l_hartree           6
#
    cut_pot             4.0          2.0  1.0
    basis_dep_cutoff    1e-4
#
    radial_base         50 7.0
    radial_multiplier   2
    angular_grids       specified
      division   0.2623   50
      division   0.5927  110
      division   0.9156  194
      division   1.1008  302
      division   1.2671  434
#      division   1.5167  590
#      division   1.7111  770
#      division   1.8945  974
#      division   2.7372 1202
      outer_grid  434
################################################################################
#
#  Definition of "minimal" basis
#
################################################################################
#     valence basis states
    valence      4  s   2.
    valence      3  p   6.
    valence      3  d   5.
#     ion occupancy
    ion_occ      4  s   1.
    ion_occ      3  p   6.
    ion_occ      3  d   4.
################################################################################
#
#  Suggested additional basis functions. For production calculations, 
#  uncomment them one after another (the most important basis functions are
#  listed first).
#
#  Constructed for dimers: 1.40 A, 1.60 A, 2.10 A, 2.75 A, 3.75 A
#
################################################################################
#  "First tier" - improvements: -466.21 meV to -15.27 meV 
     hydro 4 f 9.6
     hydro 3 d 3.2
     hydro 2 p 2
     hydro 5 g 13.6
     hydro 3 s 3.3
#  "Second tier" - improvements: -21.45 meV to -1.55 meV
     hydro 3 d 6
     hydro 6 h 19.2
     hydro 4 f 6.4
     hydro 4 f 17.2
     hydro 3 p 3.1
     hydro 3 d 6.2
     hydro 5 g 10.8
     hydro 3 s 3.8
#  "Third tier" - improvements: -1.38 meV to -0.13 meV
#     hydro 5 p 8.6   -1.38 meV
#     hydro 6 h 16    -0.73 meV
#     hydro 3 d 10.8  -0.43 meV
#     hydro 5 f 6.8   # forced: -0.26 meV
#     hydro 5 g 6.4   # forced: -0.21 meV
#     hydro 5 s 9.8   # forced: -0.13 meV
#  Further functions: improvements -0.32 meV and below
#     hydro 3 p 19.6  # -0.32 meV
#     hydro 5 f 28.4  # -0.20 meV
#     hydro 4 f 26    # -0.08 meV
#     hydro 3 p 3.5
#     hydro 5 g 14.8
#     hydro 5 s 9
#     hydro 4 p 16.8
#     hydro 6 h 18
#     hydro 4 d 13.6
################################################################################
#
#  FHI-aims code project
# Volker Blum, Fritz Haber Institute Berlin, 2009
#
#  Suggested "tight" defaults for S atom (to be pasted into control.in file)
#
#  Revised Jan 04, 2011, following tests (SiC) done by Lydia Nemec: 
#     d and g functions of tier 2 now enabled by default.
#
################################################################################
  species        S
#     global species definitions
    nucleus             16
    mass                32.065
#
    l_hartree           6
#
    cut_pot             4.0          2.0  1.0
    basis_dep_cutoff    1e-4
#
    radial_base         44 7.0
    radial_multiplier   2
    angular_grids       specified
      division   0.4665  110
      division   0.5810  194
      division   0.7139  302
      division   0.8274  434
#      division   0.9105  590
#      division   1.0975  770
#      division   1.2028  974
#      outer_grid  974
      outer_grid  434
################################################################################
#
#  Definition of "minimal" basis
#
################################################################################
#     valence basis states
    valence      3  s   2.
    valence      3  p   4.
#     ion occupancy
    ion_occ      3  s   1.
    ion_occ      3  p   3.
################################################################################
#
#  Suggested additional basis functions. For production calculations, 
#  uncomment them one after another (the most important basis functions are
#  listed first).
#
#  Constructed for dimers: 1.6 A, 1.9 A, 2.5 A, 3.25 A, 4.0 A
#
################################################################################
#  "First tier" - improvements: -652.81 meV to -45.53 meV
     ionic 3 d auto
     hydro 2 p 1.8
     hydro 4 f 7
     ionic 3 s auto
#  "Second tier" - improvements: -30.20 meV to -1.74 meV
     hydro 4 d 6.2
     hydro 5 g 10.8
     hydro 4 p 4.9
     hydro 5 f 10
     hydro 1 s 0.8
#  "Third tier" - improvements: -1.04 meV to -0.20 meV
#     hydro 3 d 3.9
#     hydro 3 d 2.7
#     hydro 5 g 12
#     hydro 4 p 10.4
#     hydro 5 f 12.4
#     hydro 2 s 1.9
#  "Fourth tier" - improvements: -0.35 meV to -0.06 meV
#     hydro 4 d 10.4
#     hydro 4 p 7.2
#     hydro 4 d 10
#     hydro 5 g 19.2
#     hydro 4 s 12
#
################################################################################
#
# For methods that use the localized form of the "resolution of identity" for
# the two-electron Coulomb operator (RI_method LVL), particularly Hartree-Fock and
# hybrid density functional calculations, the highest accuracy can be obtained by
# uncommenting the line beginning with "for_aux"  below, thus adding an extra g radial
# function to the construction of the product basis set for the expansion.
# See Ref. New J. Phys. 17, 093020 (2015) for more information, particularly Figs. 1 and 6.
#
################################################################################
#
# for_aux hydro 5 g 6.0
