# 
# This is the geometry file that corresponds to the current relaxation step.
# If you do not want this file to be written, set the "write_restart_geometry" flag to .false.
#  aims_uuid : 0082634B-034C-4186-A97C-046770DF14CA                                
# 
lattice_vector      3.71995295      0.00000000      0.00000000
lattice_vector     -1.85997648      3.22157376      0.00000000
lattice_vector      0.00000000      0.00000000    101.41758637
atom_frac       0.00049100      0.66726916      0.50095558 Se
atom_frac       0.33384918      0.33372874      0.47486330 Se
atom_frac       0.66696662      0.00030891      0.48790678 Pt
# 
# What follows is the current estimated Hessian matrix constructed by the BFGS algorithm.
# This is NOT the true Hessian matrix of the system.
# If you do not want this information here, switch it off using the "hessian_to_restart_geometry" keyword.
# 
trust_radius             0.0932242962
hessian_block                1       1           1.041247          -0.583040          -0.570076          -0.583040           1.197164           7.186694          -0.570076           7.186694        1198.295703
hessian_block                1       2           0.087140           0.261126           7.855318           0.070420           0.149345           1.706598          -1.659305          -2.978640        -134.152204
hessian_block                1       3          -0.884380           0.199911          -7.285242           0.390616          -1.102502          -8.893292           2.229381          -4.208054        -884.990562
hessian_block                2       2           1.324567          -0.575942          -2.053122          -0.575942           0.927100          -0.426256          -2.053122          -0.426256         964.484390
hessian_block                2       3          -1.167700           0.383519           3.712427           0.192813          -0.832438           3.404896          -5.802196          -1.280342        -651.179249
hessian_block                3       3           2.296087          -0.705433           3.572815          -0.705433           2.178948           5.488396           3.572815           5.488396        1715.322748
hessian_block_lv             1       1          16.976696           0.211775           0.000000           0.211775           0.008071           0.000000           0.000000           0.000000           0.000000
hessian_block_lv_atom        1       1           0.116983           0.002212           0.000000           0.406498           0.031830           0.000000          72.208505           2.399797           0.000000
hessian_block_lv_atom        1       2           0.366267           0.033458           0.000000           0.185766           0.003810           0.000000         -60.629898          -1.684041           0.000000
hessian_block_lv_atom        1       3          -0.483251          -0.035670           0.000000          -0.592265          -0.035640           0.000000         -11.578607          -0.715756           0.000000
