# 
# This is the geometry file that corresponds to the current relaxation step.
# If you do not want this file to be written, set the "write_restart_geometry" flag to .false.
#  aims_uuid : F2090B11-C605-4A60-AE6A-5CC09F000024                                
# 
lattice_vector      3.28754610      0.00000000      0.00000000
lattice_vector     -1.64377305      2.84709844      0.00000000
lattice_vector      0.00000000      0.00000000     13.27065418
atom_frac       0.32881394      0.66480629      0.25197093 W
atom_frac       0.67533234      0.33933095      0.75210111 W
atom_frac       0.34185309      0.67254845      0.87934138 Se
atom_frac       0.66222083      0.33152138      0.37921819 Se
atom_frac       0.66221424      0.33152733      0.12477436 Se
atom_frac       0.34184957      0.67254961      0.62487803 Se
# 
# What follows is the current estimated Hessian matrix constructed by the BFGS algorithm.
# This is NOT the true Hessian matrix of the system.
# If you do not want this information here, switch it off using the "hessian_to_restart_geometry" keyword.
# 
trust_radius             0.0110924923
hessian_block                1       1         486.606016         165.515674         -17.730352         165.515674          69.572351          -1.217598         -17.730352          -1.217598         276.256798
hessian_block                1       2        -481.962931        -171.620958          16.236873        -168.960150         -63.517179           2.349184           2.737423          -0.721287          23.418382
hessian_block                1       3           1.684565          -0.107705          -1.663383           5.052473           3.202658           1.107637          16.044142           2.501190         -11.383387
hessian_block                1       4          -3.550630           2.969502           2.599450          -3.553961          -5.807035          -1.809893          42.127274          16.863061        -134.964115
hessian_block                1       5          -3.592517           2.923960           2.382236          -3.527190          -5.778593          -1.655106         -36.845867         -15.821397        -139.464978
hessian_block                1       6           1.674730          -0.110090          -1.824825           5.043538           3.187029           1.225776          -6.332620          -1.603968           0.585290
hessian_block                2       2         488.881415         167.008675          -3.431272         167.008675          66.270534           1.180110          -3.431272           1.180110         215.612566
hessian_block                2       3          -3.519896           1.353835           0.800121          -3.897719          -4.427770          -0.845620         -20.665134           0.813912         -90.707634
hessian_block                2       4           0.469406          -0.617670          -0.510124           5.986857           3.493561           0.650914         -46.259528         -13.315937         -16.219937
hessian_block                2       5           0.513709          -0.578369          -0.390407           5.966930           3.463461           0.560468          42.229037          11.118719         -10.091000
hessian_block                2       6          -3.522469           1.364062           0.794259          -3.873402          -4.423376          -0.824585          11.890023          -2.145988        -107.564387
hessian_block                3       3           2.453370          -1.353054           4.091162          -1.353054           2.402271          -2.529613           4.091162          -2.529613         135.241255
hessian_block                3       4          -0.413572           0.214331          -1.859983           0.172132          -0.660360           0.925673           1.402949          -0.645982           9.047516
hessian_block                3       5          -0.398223           0.207234          -1.752455           0.157578          -0.653676           0.832450          -1.261876           0.972491          11.779017
hessian_block                3       6           1.052989          -0.652882           4.142268          -0.652402           0.996109          -2.543612          -3.368972           1.941086         -39.528776
hessian_block                4       4           3.097045          -1.960788           0.598272          -1.960788           2.951464          -1.064634           0.598272          -1.064634         140.534776
hessian_block                4       5           1.671812          -1.245965           0.675489          -1.244839           1.537590          -1.133669          -1.561618           1.462363          17.788479
hessian_block                4       6          -0.414828           0.172109           1.455546           0.209848          -0.655988          -0.702839           0.734004          -0.164423          -1.738728
hessian_block                5       5           3.062826          -1.938799          -1.419392          -1.938799           2.939241           1.371702          -1.419392           1.371702         134.817537
hessian_block                5       6          -0.398374           0.156705          -1.140284           0.202322          -0.648792           0.896122           0.504529           0.024156          -0.381064
hessian_block                6       6           2.467184          -1.359520          -3.426964          -1.359520           2.404251           1.949137          -3.426964           1.949137         163.075656
hessian_block_lv             1       1          49.457251           3.849551           0.000000           3.849551           1.755618           0.000000           0.000000           0.000000           0.000000
hessian_block_lv_atom        1       1           3.506208           3.776573           0.000000           4.243415           1.627455           0.000000          -0.110897          -3.079469           0.000000
hessian_block_lv_atom        1       2          -6.283862          -4.752369           0.000000          -1.993063          -0.885184           0.000000          -2.688399          -0.829296           0.000000
hessian_block_lv_atom        1       3           0.419898           0.372614           0.000000           0.281261          -0.183113           0.000000          18.199174           9.254318           0.000000
hessian_block_lv_atom        1       4           0.936790           0.110595           0.000000          -1.389068          -0.182124           0.000000          15.546288           8.429770           0.000000
hessian_block_lv_atom        1       5           0.990078           0.118515           0.000000          -1.428146          -0.191600           0.000000          -8.649258          -3.527972           0.000000
hessian_block_lv_atom        1       6           0.430888           0.374072           0.000000           0.285602          -0.185434           0.000000         -22.296908         -10.247351           0.000000
