# 
# This is the geometry file that corresponds to the current relaxation step.
# If you do not want this file to be written, set the "write_restart_geometry" flag to .false.
#  aims_uuid : 0CD25BB1-937A-4614-A9AD-8DCD7E26E1BC                                
# 
lattice_vector      5.69546354      0.00000000      0.00000000
lattice_vector      0.00000000      5.89254003      0.00000000
lattice_vector      0.00000000      0.00000000    101.32663754
atom_frac       0.71682585     -0.00269413      0.49985473 Se
atom_frac       0.60859912      0.61640046      0.49231111 Pd
atom_frac       0.00042766      0.49725019      0.49985382 Se
atom_frac       0.10856222      0.11644408      0.49231075 Pd
atom_frac       0.21687654      0.73550748      0.48477839 Se
atom_frac       0.50037547      0.23556288      0.48477930 Se
# 
# What follows is the current estimated Hessian matrix constructed by the BFGS algorithm.
# This is NOT the true Hessian matrix of the system.
# If you do not want this information here, switch it off using the "hessian_to_restart_geometry" keyword.
# 
trust_radius             0.1120355112
hessian_block                1       1           0.844976           0.003529           3.326078           0.003529           1.208263          -2.849571           3.326078          -2.849571         268.091322
hessian_block                1       2           0.002936          -0.151480          -0.755132          -0.166268          -0.610139          -4.383486           0.009371          -3.435344         -52.617713
hessian_block                1       3          -0.059435           0.029436          -1.870504           0.030877           0.248453          -2.064053           1.642862          -0.944804          75.525146
hessian_block                1       4          -0.344007          -0.063370           2.972474          -0.161032          -0.024240           0.475412           1.774958          -0.912198         -52.034480
hessian_block                1       5           0.042772           0.087301           1.897941           0.086468          -0.198496           1.856998          -1.655393           2.084416         -43.254556
hessian_block                1       6          -0.198242           0.094584          -5.570858           0.206427          -0.319870           6.964700          -5.097876           6.057501        -104.642912
hessian_block                2       2           1.250638           0.019641           5.024528           0.019641           1.440333           3.670720           5.024528           3.670720         228.610713
hessian_block                2       3          -0.377109           0.165352          -1.812171           0.289438          -0.275270           2.296002          -1.056744          -1.677150         -36.062364
hessian_block                2       4          -0.215625          -0.012593          -1.474637          -0.281782           0.051092          -0.659644          -1.591605           1.656348          71.558130
hessian_block                2       5          -0.417515          -0.092045          -1.693947           0.281185           0.018527           1.930400          -0.965541           1.726356         -52.065650
hessian_block                2       6           0.045676           0.085912          -0.053144          -0.157001          -0.320573          -3.802134          -0.655505          -0.992787         -68.356309
hessian_block                3       3           0.865510          -0.044248          -3.921812          -0.044248           1.405214          -3.061272          -3.921812          -3.061272         258.968660
hessian_block                3       4          -0.002355          -0.124082           0.459632           0.183595          -0.628944          -3.347196           1.421050          -2.686263         -46.170525
hessian_block                3       5          -0.172118          -0.139958           4.933179          -0.276422          -0.189048           6.376792           4.631549           5.183734        -115.841362
hessian_block                3       6           0.034508          -0.012027          -2.057115          -0.057712          -0.256435           2.653630           1.551888           0.331851         -45.352749
hessian_block                4       4           1.201069           0.240753          -4.814169           0.240753           1.401699           4.487658          -4.814169           4.487658         211.406794
hessian_block                4       5           0.019886           0.155399           0.825323          -0.049305          -0.548238          -2.144289           0.179930          -2.382716         -43.980031
hessian_block                4       6          -0.369968          -0.136933           2.384443           0.008596           0.052602          -0.401256           2.676770           1.426486         -49.713081
hessian_block                5       5           0.949130          -0.046659          -4.032633          -0.046659           1.156497          -4.690781          -4.032633          -4.690781         263.827095
hessian_block                5       6          -0.133156           0.004733           1.842088           0.035961           0.064728          -1.921008          -1.929863          -3.329120          82.381311
hessian_block                6       6           0.910181          -0.036271           3.454587          -0.036271           1.083519          -3.493931           3.454587          -3.493931         276.750548
hessian_block_lv             1       1          18.109926           9.208477          -0.474997           9.208477          10.306177          -0.060469          -0.474997          -0.060469           0.071217
hessian_block_lv_atom        1       1          -0.101797           0.182348          -0.004552          -0.516095           0.159378          -0.025883           9.164276           8.940077           0.717821
hessian_block_lv_atom        1       2          -0.190566          -0.210737          -0.019085           0.070592          -0.221819           0.005765          -4.651407          -5.915311          -0.552035
hessian_block_lv_atom        1       3           0.149867          -0.175242           0.006835          -0.825213          -0.201436          -0.060721           7.895524           7.251498           0.564596
hessian_block_lv_atom        1       4           0.102323           0.202887           0.015410           0.208878           0.123945           0.020499          -1.899951          -4.447982          -0.284850
hessian_block_lv_atom        1       5          -0.060287           0.204121          -0.003166           0.377851          -0.110357           0.012910          -5.871354          -3.739680          -0.297379
hessian_block_lv_atom        1       6           0.100459          -0.203376           0.004558           0.683987           0.250288           0.047430          -4.637088          -2.088602          -0.148152
