# 
# This is the geometry file that corresponds to the current relaxation step.
# If you do not want this file to be written, set the "write_restart_geometry" flag to .false.
#  aims_uuid : B7BFC5EB-2C25-4146-AC7F-26F2E140D70D                                
# 
lattice_vector      3.28801344      0.00000000      0.00000000
lattice_vector     -1.64400672      2.84750317      0.00000000
lattice_vector      0.00000000      0.00000000     13.22536647
atom_frac       0.32996332      0.66528392      0.25324202 W
atom_frac       0.67651846      0.34118306      0.75323450 W
atom_frac       0.34305668      0.67443518      0.88083945 Se
atom_frac       0.66340851      0.33203038      0.38084510 Se
atom_frac       0.66340875      0.33202977      0.12562726 Se
atom_frac       0.34305006      0.67444348      0.62561746 Se
# 
# What follows is the current estimated Hessian matrix constructed by the BFGS algorithm.
# This is NOT the true Hessian matrix of the system.
# If you do not want this information here, switch it off using the "hessian_to_restart_geometry" keyword.
# 
trust_radius             0.0009545835
hessian_block                1       1         469.192238         165.053749         -11.513439         165.053749          72.686552          -4.638830         -11.513439          -4.638830         454.447477
hessian_block                1       2        -460.337959        -169.001694          37.698514        -169.552582         -62.094235          -6.751509         -14.362726          -6.244554         342.555197
hessian_block                1       3          -1.721436          -1.244262         -10.555789           7.669654           2.850662          -0.298312          53.419393          19.638925        -171.170562
hessian_block                1       4          -2.140746           2.916977           1.111312          -5.723647          -7.610536           2.274210          69.638495          27.097949        -243.616758
hessian_block                1       5          -2.321123           2.678177           4.368783          -5.615382          -7.387334          -1.209461         -58.068466         -23.948674        -220.909970
hessian_block                1       6          -1.811742          -0.832562         -21.109381           7.738593           2.414123          10.623903         -39.113258         -11.904817        -146.857393
hessian_block                2       2         470.659208         163.983259          40.903881         163.983259          73.686709          -6.149548          40.903881          -6.149548         675.429657
hessian_block                2       3          -2.193824           3.360718         -12.403836          -6.247767          -7.749378          -2.127915         -61.744965         -16.546386        -348.045600
hessian_block                2       4          -1.900432          -1.005228           3.637689           7.833528           2.576445           3.638737         -86.535397         -17.509882        -181.138137
hessian_block                2       5          -1.019859          -1.005953           7.584167           6.979959           2.627415          -0.507898          48.599604          25.469567        -191.647701
hessian_block                2       6          -4.347902           3.790170         -25.359175          -3.976900          -8.187724          11.391178          21.078363          21.487759        -282.705425
hessian_block                3       3           3.158976          -1.641459           4.388445          -1.641459           3.708496           3.700465           4.388445           3.700465         292.702604
hessian_block                3       4          -0.243590           0.322782          -2.460695           0.194742          -0.077108          -2.882110           5.526629           0.645858          98.268270
hessian_block                3       5          -0.362193           0.239877          -4.693110           0.327084          -0.001021          -0.604275           6.246017          -0.738839          82.544610
hessian_block                3       6           2.221300          -0.772703          11.090933          -1.426439           2.127581          -3.306618           6.798534          -1.181258          60.148669
hessian_block                4       4           3.291488          -1.733590           0.571699          -1.733590           3.641615          -3.042289           0.571699          -3.042289         218.324257
hessian_block                4       5           1.750359          -0.928949          -1.872356          -0.892666           2.128415          -0.476013          -2.852112           1.320810          42.295253
hessian_block                4       6           0.102152          -0.071700          12.670930          -0.037892           0.200401          -6.715624          -0.007892          -1.309359          80.315106
hessian_block                5       5           3.122188          -1.598404          -3.554981          -1.598404           3.537626           2.161563          -3.554981           2.161563         214.364046
hessian_block                5       6          -0.310141           0.369793           9.629937           0.185636          -0.045869          -4.264428          -1.832503           0.636084          87.801751
hessian_block                6       6           5.005565          -2.912614          13.076755          -2.912614           4.350721          -7.728410          13.076755          -7.728410         215.745283
hessian_block_lv             1       1          50.878501           4.208903           0.000000           4.208903           2.410643           0.000000           0.000000           0.000000           0.000000
hessian_block_lv_atom        1       1          21.339466           9.846549           0.000000          10.153845           3.666698           0.000000         -16.043281         -16.212434           0.000000
hessian_block_lv_atom        1       2         -20.954161         -11.108039           0.000000          -9.405463          -2.810700           0.000000         -11.551794         -21.276792           0.000000
hessian_block_lv_atom        1       3          -1.245017           0.478608           0.000000           1.527075           0.195763           0.000000          30.039996          19.174860           0.000000
hessian_block_lv_atom        1       4           0.843050          -0.056705           0.000000          -1.693761          -0.406021           0.000000          24.798563          16.669090           0.000000
hessian_block_lv_atom        1       5           0.521384          -0.274335           0.000000          -1.362831          -0.180700           0.000000         -10.549931           0.318296           0.000000
hessian_block_lv_atom        1       6          -0.504721           1.113923           0.000000           0.781135          -0.465041           0.000000         -16.693553           1.326979           0.000000
