# 
# This is the geometry file that corresponds to the current relaxation step.
# If you do not want this file to be written, set the "write_restart_geometry" flag to .false.
#  aims_uuid : A83499B6-214A-4BE8-AE2A-2603A20CC44C                                
# 
lattice_vector      3.71995254      0.00000000      0.00000000
lattice_vector     -1.85997627      3.22157340      0.00000000
lattice_vector      0.00000000      0.00000000    101.45868605
atom_frac       0.00049885      0.66728491      0.50095160 Se
atom_frac       0.33383259      0.33369598      0.47487128 Se
atom_frac       0.66697955      0.00033009      0.48790890 Pt
# 
# What follows is the current estimated Hessian matrix constructed by the BFGS algorithm.
# This is NOT the true Hessian matrix of the system.
# If you do not want this information here, switch it off using the "hessian_to_restart_geometry" keyword.
# 
trust_radius             0.0861759840
hessian_block                1       1           1.053190          -0.614560          -1.533927          -0.614560           1.208814           6.958946          -1.533927           6.958946        1183.892908
hessian_block                1       2           0.031751           0.261098           7.875920           0.082828           0.140295           1.799629          -1.489236          -2.835731        -125.352853
hessian_block                1       3          -0.840934           0.231458          -6.341993           0.409728          -1.105103          -8.758574           3.023163          -4.123215        -879.387117
hessian_block                2       2           1.392865          -0.566708          -2.300581          -0.566708           0.907771           0.226492          -2.300581           0.226492         953.296555
hessian_block                2       3          -1.180610           0.361877           3.789817           0.183606          -0.804059           2.609239          -5.575339          -2.026120        -648.790765
hessian_block                3       3           2.265551          -0.715338           2.552176          -0.715338           2.153169           6.149335           2.552176           6.149335        1707.330820
hessian_block_lv             1       1          16.908321           0.208617           0.000000           0.208617           0.007840           0.000000           0.000000           0.000000           0.000000
hessian_block_lv_atom        1       1           0.052691          -0.001413           0.000000           0.392813           0.031490           0.000000          71.147283           2.346473           0.000000
hessian_block_lv_atom        1       2           0.404193           0.035150           0.000000           0.171856           0.001907           0.000000         -60.087578          -1.633922           0.000000
hessian_block_lv_atom        1       3          -0.456884          -0.033737           0.000000          -0.564670          -0.033397           0.000000         -11.059706          -0.712551           0.000000
