# 
# This is the geometry file that corresponds to the current relaxation step.
# If you do not want this file to be written, set the "write_restart_geometry" flag to .false.
#  aims_uuid : 05BE852B-ED20-4700-AE7B-0F65D768EFB4                                
# 
lattice_vector      5.69526764      0.00000000      0.00000000
lattice_vector      0.00000000      5.89258989      0.00000000
lattice_vector      0.00000000      0.00000000    101.32642186
atom_frac       0.71682538     -0.00269835      0.49985661 Se
atom_frac       0.60860156      0.61639970      0.49231399 Pd
atom_frac       0.00043229      0.49724921      0.49985576 Se
atom_frac       0.10856345      0.11644585      0.49231358 Pd
atom_frac       0.21687959      0.73551727      0.48478198 Se
atom_frac       0.50037666      0.23556963      0.48478278 Se
# 
# What follows is the current estimated Hessian matrix constructed by the BFGS algorithm.
# This is NOT the true Hessian matrix of the system.
# If you do not want this information here, switch it off using the "hessian_to_restart_geometry" keyword.
# 
trust_radius             0.1120707014
hessian_block                1       1           0.848309           0.003835           3.349918           0.003835           1.210277          -2.853828           3.349918          -2.853828         268.361741
hessian_block                1       2           0.005025          -0.151604          -0.738904          -0.167452          -0.605726          -4.360627           0.053458          -3.449343         -52.453081
hessian_block                1       3          -0.062528           0.030382          -1.897394           0.034434           0.249521          -2.063960           1.687611          -0.940251          75.858924
hessian_block                1       4          -0.346641          -0.065750           2.958337          -0.163352          -0.021320           0.462326           1.785115          -0.899241         -51.964007
hessian_block                1       5           0.044966           0.088553           1.918662           0.088180          -0.203701           1.857359          -1.709219           2.084930         -43.673788
hessian_block                1       6          -0.200131           0.094584          -5.590618           0.204355          -0.325080           6.958731          -5.166882           6.057734        -105.062982
hessian_block                2       2           1.250958           0.019460           5.022975           0.019460           1.425070           3.687882           5.022975           3.687882         228.721507
hessian_block                2       3          -0.379921           0.165995          -1.851661           0.288942          -0.268199           2.290953          -1.041764          -1.661030         -35.716912
hessian_block                2       4          -0.214403          -0.011521          -1.475618          -0.281905           0.045169          -0.635276          -1.604036           1.623471          71.486313
hessian_block                2       5          -0.417326          -0.089529          -1.694827           0.281863           0.023776           1.931901          -0.977405           1.719228         -52.302268
hessian_block                2       6           0.044667           0.083047          -0.054328          -0.156757          -0.316119          -3.826118          -0.660866          -1.008925         -68.668753
hessian_block                3       3           0.868539          -0.046886          -3.969660          -0.046886           1.404688          -3.047660          -3.969660          -3.047660         259.426245
hessian_block                3       4           0.000708          -0.125063           0.448302           0.186690          -0.623810          -3.356494           1.415377          -2.670451         -46.056183
hessian_block                3       5          -0.174016          -0.139020           4.961432          -0.279413          -0.194953           6.373551           4.683196           5.168738        -116.462492
hessian_block                3       6           0.036219          -0.012407          -2.085921          -0.056768          -0.263277           2.631884           1.620142           0.322380         -45.982775
hessian_block                4       4           1.198759           0.239105          -4.805998           0.239105           1.399222           4.498919          -4.805998           4.498919         211.203470
hessian_block                4       5           0.019183           0.156767           0.824046          -0.047248          -0.547675          -2.145256           0.194655          -2.382264         -43.910118
hessian_block                4       6          -0.368606          -0.137305           2.385496           0.010477           0.052384          -0.407443           2.680322           1.412789         -49.692668
hessian_block                5       5           0.950037          -0.049411          -4.056173          -0.049411           1.159131          -4.693681          -4.056173          -4.693681         264.386651
hessian_block                5       6          -0.133842           0.006029           1.864947           0.032640           0.067392          -1.896951          -1.953139          -3.323875          83.028822
hessian_block                6       6           0.910693          -0.033948           3.480424          -0.033948           1.088670          -3.460103           3.480424          -3.460103         277.445163
hessian_block_lv             1       1          18.080763           9.255817          -0.471414           9.255817          10.385664          -0.058315          -0.471414          -0.058315           0.071608
hessian_block_lv_atom        1       1          -0.106378           0.180738          -0.004948          -0.521432           0.155147          -0.026336           9.149855           8.920114           0.714901
hessian_block_lv_atom        1       2          -0.190429          -0.211065          -0.018925           0.067114          -0.223355           0.005296          -4.625432          -5.876043          -0.547136
hessian_block_lv_atom        1       3           0.153043          -0.172849           0.007144          -0.828573          -0.204195          -0.060756           7.863844           7.234802           0.561212
hessian_block_lv_atom        1       4           0.104959           0.201178           0.015393           0.205468           0.122973           0.019952          -1.889410          -4.397584          -0.282301
hessian_block_lv_atom        1       5          -0.062209           0.208186          -0.003174           0.385325          -0.105836           0.013726          -5.858438          -3.753497          -0.296559
hessian_block_lv_atom        1       6           0.101014          -0.206188           0.004510           0.692098           0.255265           0.048118          -4.640419          -2.127791          -0.150118
