# 
# This is the geometry file that corresponds to the current relaxation step.
# If you do not want this file to be written, set the "write_restart_geometry" flag to .false.
#  aims_uuid : 5E6C2FAE-9D20-474A-AAB9-3396099F6CC9                                
# 
lattice_vector      3.78026295      0.00000000      0.00000000
lattice_vector     -1.89013147      3.27380374      0.00000000
lattice_vector      0.00000000      0.00000000      4.95199024
atom_frac      -0.00027209     -0.00026417     -0.00026084 Pt
atom_frac       0.33301830      0.66633492      0.25954233 Se
atom_frac       0.66647087      0.33314633      0.73993559 Se
# 
# What follows is the current estimated Hessian matrix constructed by the BFGS algorithm.
# This is NOT the true Hessian matrix of the system.
# If you do not want this information here, switch it off using the "hessian_to_restart_geometry" keyword.
# 
trust_radius             0.1000000015
hessian_block                1       1           8.712626          -0.472972           0.441605          -0.472972           6.899578          -0.595210           0.441605          -0.595210          24.315487
hessian_block                1       2          -3.308736          -0.247490          -0.172778          -0.250214          -2.487706           0.454835           0.248049           0.557724         -10.683527
hessian_block                1       3          -3.540807          -0.211080          -0.268827          -0.208356          -2.548789           0.140375          -0.689654           0.037485         -10.558949
hessian_block                2       2           5.901941          -1.848854          -0.050819          -1.848854           6.125497          -0.714864          -0.050819          -0.714864          16.510837
hessian_block                2       3          -0.730122           1.167527          -0.197230           1.164803          -1.774708           0.157140           0.223597           0.260029          -2.754299
hessian_block                3       3           6.134012          -1.887989           0.466057          -1.887989           6.186581          -0.297515           0.466057          -0.297515          16.386259
hessian_block_lv             1       1          35.914661           5.834261           0.000000           5.834261           1.906634           0.000000           0.000000           0.000000           0.000000
hessian_block_lv_atom        1       1          -0.181676           0.001883           0.000000          -0.101125          -0.017114           0.000000          -0.177892          -0.055889           0.000000
hessian_block_lv_atom        1       2           0.522414           0.097848           0.000000           3.013106           0.301388           0.000000           4.151254           2.723740           0.000000
hessian_block_lv_atom        1       3          -0.340738          -0.099731           0.000000          -2.911982          -0.284274           0.000000          -3.973362          -2.667851           0.000000
