#===============================================================================
# FHI-aims file: ./control.in
# Created using the Atomic Simulation Environment (ASE)
# Wed Oct 23 16:37:33 2019
# 
# List of parameters used to initialize the calculator:
#     species_dir : /chemsoft/FHI-aims/171221_1/species_defaults/tight
#     spin : none
#     k_grid : [6, 6, 1]
#     sc_accuracy_etot : 1E-6
#     sc_iter_limit : 500
#     xc : pbe
#     sc_accuracy_eev : 1E-3
#     relativistic : ('atomic_zora', 'scalar')
#===============================================================================
spin                               none
k_grid                             12 12 1
sc_accuracy_etot                   1E-6
sc_iter_limit                      500
### band structure section 
output band 0.000000 0.000000 0.000000    0.500000 0.000000 0.000000  31  G M
output band 0.500000 0.000000 0.000000    0.333333 0.333333 0.000000  31  M K
output band 0.333333 0.333333 0.000000    0.000000 0.000000 0.000000  31  K G
xc                                 pbe
RI_method                          V
#periodic_hf    coulomb_threshold   10E-6
sc_accuracy_eev                    1E-3
relativistic                       atomic_zora scalar
#===============================================================================
################################################################################
#
#  FHI-aims code project
# Volker Blum, Fritz Haber Institute Berlin, 2009
#
#  Suggested "tight" defaults for Mo atom (to be pasted into control.in file)
#
################################################################################
  species        Mo
#     global species definitions
    nucleus             42
    mass                95.94
#
    l_hartree           6
#
    cut_pot             6.0  2.0  1.0
    basis_dep_cutoff    0
#
    radial_base         59 7.0
    radial_multiplier   2
    angular_grids specified
      division   0.3117   50
      division   0.6750  110
      division   1.0351  194
      division   1.2073  302
      division   1.6402  434
      division   1.9185  590
      division   2.0237  770
      division   2.0980  974
      division   2.7972 1202
      outer_grid  974
#      outer_grid  434
################################################################################
#
#  Definition of "minimal" basis
#
################################################################################
#     valence basis states
    valence      5  s   1.
    valence      4  p   6.
    valence      4  d   5.
#     ion occupancy
    ion_occ     5  s   0.
    ion_occ     4  p   6.
    ion_occ     4  d   4.
################################################################################
#
#  Suggested additional basis functions. For production calculations, 
#  uncomment them one after another (the most important basis functions are
#  listed first).
#
#  Constructed for dimers: 1.675 A, 1.9 A, 2.375 A, 3.00 A, 4.00 A
#
################################################################################
#  "First tier"  - max. impr. -711.23  meV, min. impr. -21.07 meV
     hydro 4 f 8.4
     hydro 3 d 2.8
     ionic 5 p auto
     hydro 5 g 12
     ionic 5 s auto
#  "Second tier" - max. impr. -39.38  meV, min. impr. -2.68 meV
#     hydro 4 f 12.4
#     hydro 3 d 3.3
#     hydro 6 h 17.2
#     hydro 4 f 7.6    
#     hydro 3 p 3.0    
#     hydro 1 s 0.65   
#  "Third tier"  - max. impr. -5.50 meV, min. impr. -0.47 meV
#     hydro 4 f 29.2
#     hydro 5 g 11.2
#     hydro 3 d 6.8
#     hydro 6 h 14.8
#     hydro 2 p 2.3
#     hydro 4 s 3.8    
#  "Fourth tier"  - max. impr. -0.58 meV, min. impr. -0.19 meV
#     hydro 5 f 6.8    
#     hydro 5 d 14.8
#     hydro 6 s 7.8
#     hydro 5 g 20.8
#     hydro 5 d 10.4
#     hydro 5 p 9.8
#  Further functions - -0.17 meV and below
#     hydro 5 d 3.2  
################################################################################
#
#  FHI-aims code project
# Volker Blum, Fritz Haber Institute Berlin, 2009
#
#  Suggested "tight" defaults for Se atom (to be pasted into control.in file)
#
################################################################################
  species        Se
#     global species definitions
    nucleus             34
    mass                78.96
#
    l_hartree           6
#
    cut_pot             6.0          2.0  1.0
    basis_dep_cutoff    0
#
    radial_base         55 7.0
    radial_multiplier   2
    angular_grids       specified
      division   0.0830  110
      division   0.1357  194
      division   0.7377  302
      division   0.8610  434
      division   0.9640  590
      division   1.0773  770
      division   2.5539  974
      outer_grid  974
################################################################################
#
#  Definition of "minimal" basis
#
################################################################################
#     valence basis states
    valence      4  s   2.
    valence      4  p   4.
    valence      3  d  10.
#     ion occupancy
    ion_occ      4  s   1.
    ion_occ      4  p   3.
    ion_occ      3  d  10.
################################################################################
#
#  Suggested additional basis functions. For production calculations, 
#  uncomment them one after another (the most important basis functions are
#  listed first).
#
#  Constructed for dimers: 1.85 A, 2.15 A, 2.50 A, 3.00 A, 4.00 A
#
################################################################################
#  "First tier" - improvements: -336.21 meV to -36.85 meV 
     hydro 3 d 4.3
     hydro 2 p 1.6
     hydro 4 f 7.2
     ionic 4 s auto
#  "Second tier" - improvements: -14.39 meV to -1.49 meV
#     hydro 5 g 10.4  
#     hydro 4 p 4.5
#     hydro 4 d 6.2
#     hydro 4 f 11.2
#     hydro 1 s 0.65
#     hydro 6 h 15.2
#  "Third tier" - improvements: -0.46 meV and below
#     hydro 5 g 14.4
#     ionic 4 d auto
#     hydro 4 f 22.4
#     hydro 5 f 7.4
#     hydro 5 p 8
#     hydro 5 s 9.4    
#  "Fourth tier" - improvements: -0.12 meV and below
#     hydro 5 d 11.6
#     hydro 6 h 18
#     hydro 4 p 4
#     hydro 5 f 16
#     hydro 4 s 3.9    


