#=======================================================
# FHI-aims file: ./geometry.in
# Created using the Atomic Simulation Environment (ASE)
# Thu Dec  3 13:12:04 2020
#=======================================================
lattice_vector 0.0000000000000000 2.7343639799999999 2.7343639799999999 
lattice_vector 2.7343639799999999 0.0000000000000000 2.7343639799999999 
lattice_vector 2.7343639799999999 2.7343639799999999 0.0000000000000000 
atom_frac 0.0000000000000000 0.0000000000000000 -0.0000000000000000 Si
atom_frac 0.2500000000000000 0.2500000000000000 0.2500000000000000 Si
