#===============================================================================
# FHI-aims file: ./control.in
# Created using the Atomic Simulation Environment (ASE)
# Thu Apr  2 11:27:09 2020
#===============================================================================
xc                                 pbe
# include_spin_orbit
# vdw_correction_hirshfeld
many_body_dispersion
spin                               none
k_grid 	 	 9 9 8
relativistic                       atomic_zora scalar
energy_tolerance 1e-2
harmonic_length_scale  0.015 
### SCF settings 
adjust_scf 	 always 	 3 
# frozen_core_scf 	 .true. 
# charge_mix_param  0.05
# occupation_type 	 gaussian 	 0.01 
# sc_accuracy_eev   1E-3 	 	 # sum of eigenvalues convergence
# sc_accuracy_etot  1E-6 	 	 # total energy convergence
# sc_accuracy_rho   1E-3 	 	 # electron density convergence
# elsi_restart 	 read_and_write 	 1000
### geometry optimisation section
relax_geometry 	 bfgs 	 1E-2
relax_unit_cell 	 full 
#===============================================================================

################################################################################
#
#  FHI-aims code project
# Volker Blum, Fritz Haber Institute Berlin, 2009
#
#  Suggested "tight" defaults for Pd atom (to be pasted into control.in file)
#
################################################################################
  species        Pd
#     global species definitions
    nucleus             46
    mass                106.42
#
    l_hartree           6
#
    cut_pot             4.0  2.0  1.0
    basis_dep_cutoff    1e-4
#
    radial_base         62 7.0
    radial_multiplier   2
    angular_grids specified
      division   0.3627   50
      division   0.7349  110
      division   1.0624  194
      division   1.2496  302
      division   1.6740  434
#      division   2.0126  590
#      division   2.0830  770
#      division   2.7936 1202
#       outer_grid  974
      outer_grid  434
################################################################################
#
#  Definition of "minimal" basis
#
################################################################################
#     valence basis states
    valence      5  s   1.
    valence      4  p   6.
    valence      4  d   9.
#     ion occupancy
    ion_occ     5  s   0.
    ion_occ     4  p   6.
    ion_occ     4  d   8.
################################################################################
#
#  Suggested additional basis functions. For production calculations, 
#  uncomment them one after another (the most important basis functions are
#  listed first).
#
#  Constructed for dimers: 2.0 A, 2.275 A, 2.75 A, 3.75 A
#
################################################################################
#  "First tier" - max. impr. -120.76  meV, min. impr. -5.71 meV
     ionic 5 p auto
     hydro 4 f 8
     hydro 5 g 10
     hydro 3 s 2.6
     hydro 3 d 2.5
#  "Second tier" - max. impr. -5.00  meV, min. impr. -0.62 meV
#     hydro 5 f 17.2
#     hydro 6 h 14
#     hydro 4 d 4
#     hydro 5 f 7.6
#     hydro 3 p 3.3
#     hydro 4 s 9.4
#  "Third tier" - max. impr. -0.54  meV, min. impr. -0.14 meV
#     hydro 4 f 20
#     hydro 5 g 12.8
#     hydro 5 d 9.8
#     hydro 6 h 15.2
#     hydro 5 s 10
#     hydro 6 p 9.8
#  "Fourth tier" - max. impr. -0.15  meV, min. impr. -0.05 meV
#     hydro 5 f 9.2
#     hydro 2 s 5.6
#     hydro 5 f 43.2
#     hydro 5 d 13.2
#     hydro 5 g 14
#     hydro 4 p 4.7
################################################################################
#
#  FHI-aims code project
# Volker Blum, Fritz Haber Institute Berlin, 2009
#
#  Suggested "tight" defaults for Se atom (to be pasted into control.in file)
#
################################################################################
  species        Se
#     global species definitions
    nucleus             34
    mass                78.96
#
    l_hartree           6
#
    cut_pot             4.0          2.0  1.0
    basis_dep_cutoff    1e-4
#
    radial_base         55 7.0
    radial_multiplier   2
    angular_grids       specified
      division   0.0830  110
      division   0.1357  194
      division   0.7377  302
      division   0.8610  434
#      division   0.9640  590
#      division   1.0773  770
#      division   2.5539  974
#      outer_grid  974
      outer_grid  434
################################################################################
#
#  Definition of "minimal" basis
#
################################################################################
#     valence basis states
    valence      4  s   2.
    valence      4  p   4.
    valence      3  d  10.
#     ion occupancy
    ion_occ      4  s   1.
    ion_occ      4  p   3.
    ion_occ      3  d  10.
################################################################################
#
#  Suggested additional basis functions. For production calculations, 
#  uncomment them one after another (the most important basis functions are
#  listed first).
#
#  Constructed for dimers: 1.85 A, 2.15 A, 2.50 A, 3.00 A, 4.00 A
#
################################################################################
#  "First tier" - improvements: -336.21 meV to -36.85 meV 
     hydro 3 d 4.3
     hydro 2 p 1.6
     hydro 4 f 7.2
     ionic 4 s auto
#  "Second tier" - improvements: -14.39 meV to -1.49 meV
#     hydro 5 g 10.4  
#     hydro 4 p 4.5
#     hydro 4 d 6.2
#     hydro 4 f 11.2
#     hydro 1 s 0.65
#     hydro 6 h 15.2
#  "Third tier" - improvements: -0.46 meV and below
#     hydro 5 g 14.4
#     ionic 4 d auto
#     hydro 4 f 22.4
#     hydro 5 f 7.4
#     hydro 5 p 8
#     hydro 5 s 9.4    
#  "Fourth tier" - improvements: -0.12 meV and below
#     hydro 5 d 11.6
#     hydro 6 h 18
#     hydro 4 p 4
#     hydro 5 f 16
#     hydro 4 s 3.9    
#
#
