# 
# This is the geometry file that corresponds to the current relaxation step.
# If you do not want this file to be written, set the "write_restart_geometry" flag to .false.
#  aims_uuid : 28231714-8D35-4031-A94E-4A3AD9C52DD8                                
# 
lattice_vector      5.84038782      0.00000000      0.00000000
lattice_vector      0.00000000      5.95180497      0.00000000
lattice_vector      0.00000000      0.00000000      7.50655324
atom_frac       0.50116835      0.00078955      0.00066368 Pd
atom_frac       0.00075564      0.00079376      0.50134378 Pd
atom_frac       0.00085162      0.50118712      0.00069627 Pd
atom_frac       0.50124367      0.50119891      0.50130859 Pd
atom_frac       0.61286290      0.11895918      0.40369399 Se
atom_frac       0.88985253      0.88346332      0.90395807 Se
atom_frac       0.11251235      0.38306266      0.59877297 Se
atom_frac       0.38946091      0.61933750      0.09829747 Se
atom_frac       0.38950401      0.88346311      0.59878457 Se
atom_frac       0.11255111      0.11893165      0.09831686 Se
atom_frac       0.88987804      0.61930421      0.40369496 Se
atom_frac       0.61287195      0.38302213      0.90398187 Se
# 
# What follows is the current estimated Hessian matrix constructed by the BFGS algorithm.
# This is NOT the true Hessian matrix of the system.
# If you do not want this information here, switch it off using the "hessian_to_restart_geometry" keyword.
# 
trust_radius             0.0122117393
hessian_block                1       1           5.956723           0.025381          -2.247974           0.025381           6.336045          -1.050514          -2.247974          -1.050514           4.885141
hessian_block                1       2          -0.068564           0.521184           0.146750           0.387151           0.355553          -0.005266           0.042716           0.035074          -0.018533
hessian_block                1       3          -0.019620           0.626726           0.156868          -0.070205          -0.246906          -0.004459          -0.188481           0.218861           0.139832
hessian_block                1       4           0.544549           0.262338          -0.067041           0.201129          -0.384989          -0.178599           0.120318          -0.035277          -0.036906
hessian_block                1       5          -0.078571          -0.548255          -0.303054          -0.435522           0.134897           0.274505          -0.305036           0.250013           0.308662
hessian_block                1       6          -1.747981           0.117611           0.677752           0.432213          -0.398184          -0.255377           1.249382          -0.265938          -0.468205
hessian_block                1       7          -0.390813           0.248480           0.256075           0.117097           0.393046           0.233687           0.105717          -0.221878          -0.192223
hessian_block                1       8          -0.252342          -0.645724           0.304122          -0.364901          -1.992902           0.667797           0.066205           0.669470          -0.538132
hessian_block                1       9          -0.121248           0.033125           0.206602          -0.363372          -0.306588          -0.135155          -0.003956          -0.393947          -0.200809
hessian_block                1      10          -2.280594           0.773291           1.011887           0.118538          -0.272759          -0.280423           0.799826          -0.321262          -0.589897
hessian_block                1      11           0.118883          -0.520429          -0.246447           0.096326          -0.190093          -0.192275           0.008926           0.372645           0.314389
hessian_block                1      12          -0.094509          -0.893729           0.104459          -0.143835          -1.780096           0.926079           0.352357           0.742753          -0.501457
hessian_block                2       2           6.240441           0.255814           2.240550           0.255814           6.906921           1.583033           2.240550           1.583033           4.906964
hessian_block                2       3           0.954464           0.600459           0.244158          -0.530159          -0.271116          -0.127876           0.294611           0.092126           0.042358
hessian_block                2       4           0.196806           0.541298           0.103329          -0.714709           0.408729           0.190411          -0.073353           0.296403           0.105689
hessian_block                2       5          -2.204444           0.256639          -0.777563           0.559996          -0.396649           0.135037          -0.512477           0.014435          -0.591091
hessian_block                2       6          -0.497968          -0.304117          -0.115048          -0.167866          -0.931293          -0.398545          -0.109368          -0.237326          -0.284349
hessian_block                2       7           0.111949          -0.653823          -0.316303          -0.228327          -1.837493          -0.983081          -0.499478          -1.224127          -0.530929
hessian_block                2       8          -0.247971          -0.391952          -0.186808           0.167495          -0.316387          -0.083012          -0.139159          -0.177286           0.037509
hessian_block                2       9          -2.023463           0.325599          -1.009867           0.652654          -0.971189           0.144495          -1.378067          -0.118069          -0.483132
hessian_block                2      10           0.483286          -0.123753           0.080897           0.127352           0.617653           0.488775           0.069956           0.515886           0.403002
hessian_block                2      11          -0.763096          -0.719426          -0.241965          -0.530515          -2.475391          -1.083372           0.065657          -0.793183          -0.547281
hessian_block                2      12          -0.615529          -0.173888          -0.064098          -0.112919           0.557687           0.099061          -0.105620           0.053375           0.061657
hessian_block                3       3           6.471683          -0.482668           2.459350          -0.482668           6.256147          -1.301851           2.459350          -1.301851           4.934543
hessian_block                3       4           0.286522          -0.209022          -0.056032          -0.540794           0.389173          -0.204404           0.004362          -0.015847          -0.025194
hessian_block                3       5          -0.527799           0.117096          -0.345505          -0.015306           0.205737           0.257443           0.332233           0.016979           0.363159
hessian_block                3       6          -0.817655           0.617803          -0.519104           0.038220          -1.823091           0.726943          -0.535866           0.745675          -0.617617
hessian_block                3       7           0.199930          -0.031773           0.266954           0.224161          -0.076963           0.228110          -0.472972           0.022856          -0.344028
hessian_block                3       8          -2.086565          -0.321238          -0.827772          -0.564139          -0.466858          -0.514348          -1.046593          -0.226255          -0.580674
hessian_block                3       9          -0.312429           0.364007           0.134307          -0.066659          -0.108616          -0.071365          -0.726806           0.287097          -0.313359
hessian_block                3      10           0.435328           0.468280           0.140893           0.905225          -1.949087           1.082887           0.045906           0.828701          -0.442904
hessian_block                3      11          -0.606186           0.295961          -0.293321          -0.209532          -0.131852          -0.309046           0.395133           0.009329           0.342117
hessian_block                3      12          -2.411763          -0.218080          -1.065900          -0.515695          -0.129543          -0.205355          -0.855774          -0.234349          -0.396369
hessian_block                4       4           5.919703           0.098369          -1.997346           0.098369           6.950893           1.525743          -1.997346           1.525743           4.862903
hessian_block                4       5          -0.431009           0.914923           0.365756           0.195189          -2.052811          -1.013730           0.012025          -1.311901          -0.663980
hessian_block                4       6          -0.122902           0.204798           0.019538          -0.238311          -0.589577          -0.299620           0.355085          -0.363095          -0.152880
hessian_block                4       7          -1.934336          -0.950294           0.660524          -0.273281          -0.607268           0.081802           0.800787           0.163427          -0.395679
hessian_block                4       8          -0.217792          -0.039473          -0.107224           0.118181          -0.488903          -0.060987          -0.205564           0.058978           0.070469
hessian_block                4       9          -0.285429           0.603248           0.110916           0.064754          -2.440682          -1.068013           0.066785          -0.567187          -0.364826
hessian_block                4      10          -0.393970          -0.348038          -0.125415          -0.268974           0.646963           0.272440           0.007699           0.527636           0.302889
hessian_block                4      11          -1.897286           0.061201           0.941421          -0.625766          -0.618931           0.168238           0.909625          -0.026730          -0.584301
hessian_block                4      12          -0.098947           0.509638           0.080501           0.335225           0.434428           0.148850           0.070648           0.185721          -0.016320
hessian_block                5       5           5.332744          -0.589520          -1.311479          -0.589520           5.833795          -0.959940          -1.311479          -0.959940           7.489078
hessian_block                5       6           0.326161          -0.031679          -0.352292           0.057024          -0.088318           0.397651          -0.204762          -0.447231           0.270641
hessian_block                5       7          -0.540706           0.919001           0.062700          -0.973147           0.509328           0.408847           0.474042           0.178389          -1.009333
hessian_block                5       8           0.016320          -0.000380           0.341648           0.330169          -0.252080          -0.483107           0.432545           0.322663          -0.683323
hessian_block                5       9          -1.334518          -0.351566           1.733108          -0.360363          -1.557304           2.122071           1.910375           1.960513          -3.389298
hessian_block                5      10          -0.090816           0.337983           0.509456           0.325228           0.269969          -0.336278           0.460692          -0.106254          -0.578741
hessian_block                5      11           0.750612          -0.738839           0.016653           0.741841          -0.684141          -0.261104          -0.747682          -0.054722           1.060121
hessian_block                5      12           0.347936           0.150643          -0.526538          -0.271636          -0.275398           0.142335           0.046633          -0.546670           0.525969
hessian_block                6       6           5.314161           0.307572           1.722170           0.307572           5.930273           1.902669           1.722170           1.902669           8.430803
hessian_block                6       7           0.165145           0.038861           0.071160           0.167606           0.252990           0.832361           0.360097           0.181018          -0.113866
hessian_block                6       8           0.058161           0.397636           0.092120           0.312617           0.444997           0.546552           0.131770          -0.154660          -0.537764
hessian_block                6       9           0.081529           0.169488           0.095438           0.054947           0.785231           0.236030           0.362773           0.004456          -0.465353
hessian_block                6      10          -1.691367          -1.185419          -2.576510          -1.209632          -2.161249          -2.952038          -2.062758          -2.541727          -3.985311
hessian_block                6      11           0.044025           0.133108          -0.210617          -0.093451           0.585490          -0.004043          -0.450319           0.197683           0.325472
hessian_block                6      12           0.454603           0.017475           0.051768          -0.144078          -0.360244           0.006387           0.225420           0.239509           0.700294
hessian_block                7       7           5.360113           0.845801           0.936399           0.845801           5.976764          -1.255917           0.936399          -1.255917           7.611544
hessian_block                7       8          -0.133447          -0.007161          -0.090114           0.007674          -0.075098           0.733502           0.212264          -0.432542           0.821872
hessian_block                7       9           0.392058           0.559187          -0.211035          -0.412382          -0.555210          -0.164904           0.141169          -0.393962           1.198450
hessian_block                7      10           0.128723          -0.364680          -0.357957           0.110663          -0.619209          -0.275189          -0.475795          -0.981290           0.221833
hessian_block                7      11          -1.832709           0.060728          -1.506732           0.254860          -1.825853           2.307603          -1.409955           2.182085          -3.413675
hessian_block                7      12           0.040002          -0.127985           0.461245          -0.377068           0.111990          -0.444781          -0.405192           0.079901          -0.752102
hessian_block                8       8           4.655649          -0.017935          -0.926464          -0.017935           5.685242           1.283137          -0.926464           1.283137           7.009875
hessian_block                8       9           0.267783          -0.458725          -0.191867           0.255036           0.414651          -0.153162          -0.029692           0.403501           0.847533
hessian_block                8      10          -0.000718          -0.308341           0.073236          -0.412596          -0.490252           0.373833          -0.283244          -0.198962           0.453425
hessian_block                8      11           0.314809          -0.171099          -0.112773           0.192698           0.716199           0.375009           0.260810          -0.571618          -0.802850
hessian_block                8      12          -0.807978           0.949002           1.706400           0.991088          -1.531583          -1.939186           1.452618          -1.722455          -2.996073
hessian_block                9       9           5.018230          -0.532138          -0.793478          -0.532138           6.266291          -1.291272          -0.793478          -1.291272           7.640022
hessian_block                9      10          -0.056438           0.403242          -0.270923          -0.281752          -0.273917           0.061810          -0.467140          -0.212649           0.416580
hessian_block                9      11          -0.200599           0.583963           0.055254          -0.591400           0.905553           0.413551           0.418488           0.128747          -1.045532
hessian_block                9      12           0.140435          -0.279684           0.666565           0.160929          -0.511197          -0.366490          -0.025471           0.465178          -0.738412
hessian_block               10      10           5.545983           0.548741           1.478517           0.548741           6.620380           2.166434           1.478517           2.166434           7.873164
hessian_block               10      11          -0.072505          -0.007730           0.414685           0.092112          -0.667708           0.240352           0.287356          -0.441067          -0.519970
hessian_block               10      12          -0.441002           0.044935           0.011658          -0.293420          -0.073759           0.083136          -0.251436          -0.161185          -0.452207
hessian_block               11      11           5.521070           0.750427           0.762527           0.750427           6.349841          -1.421800           0.762527          -1.421800           7.460266
hessian_block               11      12           0.188890          -0.077600          -0.500566           0.272137          -0.316088           0.418631           0.421313          -0.233112           0.513110
hessian_block               12      12           4.863774           0.099272          -0.925495           0.099272           5.520826           1.131335          -0.925495           1.131335           7.153775
hessian_block_lv             1       1          25.807797          -2.539220           5.089737          -2.539220          23.728454           2.341104           5.089737           2.341104           1.815570
hessian_block_lv_atom        1       1           0.096390           0.229824          -0.000063          -0.497276          -0.696887          -0.133524          -0.229638          -0.280311          -0.001973
hessian_block_lv_atom        1       2          -0.849050          -1.258530          -0.236835           0.347854           0.067244           0.145096           0.307880          -0.144259           0.039682
hessian_block_lv_atom        1       3          -0.770910          -1.250201          -0.209947           0.433727           0.595914           0.124510          -0.303817          -0.694128          -0.037651
hessian_block_lv_atom        1       4          -0.106033          -0.123426          -0.058008           1.256423           1.288269           0.398308           0.469844           0.411337           0.100999
hessian_block_lv_atom        1       5           0.777864           0.925262           0.484927           0.002364          -0.445802           0.200986          -1.662766          -2.409374          -1.247357
hessian_block_lv_atom        1       6           0.022154           0.237358          -0.257952          -0.791766          -0.471601          -0.469549          -2.350597          -2.402120          -1.416131
hessian_block_lv_atom        1       7          -0.847782          -1.280581           0.012876          -1.325272          -1.166934          -0.591290           1.429623           2.289517           1.109458
hessian_block_lv_atom        1       8           0.000504           0.498082          -0.233469          -0.306424          -0.470548           0.055872           1.437045           1.927299           1.171459
hessian_block_lv_atom        1       9           0.007485           0.249850          -0.229621          -0.780794          -0.522642          -0.446341           1.863915           2.696211           1.253761
hessian_block_lv_atom        1      10          -0.112874          -0.355195           0.254574           0.827985           0.250387           0.493833           2.093244           2.542082           1.378640
hessian_block_lv_atom        1      11           1.030109           1.502318           0.030883           0.491440           0.770194           0.289244          -1.519746          -2.224450          -1.210426
hessian_block_lv_atom        1      12           0.752140           0.625238           0.442634           0.341738           0.802405          -0.067147          -1.534986          -1.711805          -1.140462
symmetry_n_params 39 3 36
symmetry_params a1 b2 c3 x0 x1 x2 x3 x4 x5 x6 x7 x8 x9 x10 x11 x12 x13 x14 x15 x16 x17 x18 x19 x20 x21 x22 x23 x24 x25 x26 x27 x28 x29 x30 x31 x32 x33 x34 x35
symmetry_lv a1 , 0 , 0 
symmetry_lv 0 , b2 , 0 
symmetry_lv 0 , 0 , c3
symmetry_frac x0 , x1 , x2
symmetry_frac x3 , x4 , x5
symmetry_frac x6 , x7 , x8
symmetry_frac x9 , x10 , x11
symmetry_frac x12 , x13 , x14
symmetry_frac x15 , x16 , x17
symmetry_frac x18 , x19 , x20
symmetry_frac x21 , x22 , x23
symmetry_frac x24 , x25 , x26
symmetry_frac x27 , x28 , x29
symmetry_frac x30 , x31 , x32
symmetry_frac x33 , x34 , x35
