# 
# This is the geometry file that corresponds to the current relaxation step.
# If you do not want this file to be written, set the "write_restart_geometry" flag to .false.
#  aims_uuid : E6069000-8D51-40E3-A5C9-0324484B8A18                                
# 
lattice_vector      5.83642167      0.00000000      0.00000000
lattice_vector      0.00000000      5.94707159      0.00000000
lattice_vector      0.00000000      0.00000000      7.56892976
atom_frac       0.50158286      0.00172403      0.00157273 Pd
atom_frac       0.00176184      0.00171288      0.50180225 Pd
atom_frac       0.00179737      0.50174254      0.00161821 Pd
atom_frac       0.50169794      0.50160167      0.50179230 Pd
atom_frac       0.61376498      0.12009004      0.40545379 Se
atom_frac       0.88963122      0.88325600      0.90540194 Se
atom_frac       0.11369610      0.38339491      0.59802548 Se
atom_frac       0.38972284      0.62002949      0.09795562 Se
atom_frac       0.38969578      0.88329917      0.59800469 Se
atom_frac       0.11369579      0.12016767      0.09793479 Se
atom_frac       0.88957005      0.62012599      0.40546192 Se
atom_frac       0.61381031      0.38328268      0.90540335 Se
# 
# What follows is the current estimated Hessian matrix constructed by the BFGS algorithm.
# This is NOT the true Hessian matrix of the system.
# If you do not want this information here, switch it off using the "hessian_to_restart_geometry" keyword.
# 
trust_radius             0.0180123235
hessian_block                1       1           6.323120          -0.117804          -2.211836          -0.117804           6.543646          -1.227397          -2.211836          -1.227397           4.890686
hessian_block                1       2          -0.457257           0.660267           0.047115           0.646612           0.293568          -0.270384           0.311774          -0.122676           0.137344
hessian_block                1       3          -0.154365           0.738956           0.069826          -0.006900          -0.115999          -0.131705          -0.142926           0.054558           0.134997
hessian_block                1       4           0.819096           0.096438           0.063870           0.716715          -0.530505          -0.297667           0.411765          -0.164680           0.049380
hessian_block                1       5           0.180477          -0.690642          -0.326673          -0.348818          -0.077948           0.588178          -0.262304           0.201271           0.245242
hessian_block                1       6          -2.354981           0.362811           0.832868           0.708186          -0.276589          -0.511558           0.902251           0.296165          -0.920138
hessian_block                1       7          -0.409969           0.230893           0.247931          -0.316700           0.712869           0.021251          -0.195910          -0.128831           0.190768
hessian_block                1       8          -0.721849          -0.293965           0.301868           0.196606          -2.144965           0.642993           0.327376           0.741604          -0.799901
hessian_block                1       9          -0.308293           0.262931           0.090914          -0.816690          -0.037439          -0.186516          -0.114635          -0.342450           0.128218
hessian_block                1      10          -1.909054           0.459501           0.961690          -0.242768          -0.506225           0.051554           0.993098          -0.602719          -0.512314
hessian_block                1      11           0.200487          -0.562303          -0.133733           0.149376          -0.379631           0.174880           0.190469           0.294576           0.170239
hessian_block                1      12           0.358502          -1.147086           0.056160          -0.567816          -1.833760           1.146371          -0.209118           1.000577          -0.612660
hessian_block                2       2           6.735329           0.008221           1.963896           0.008221           7.251497           1.659846           1.963896           1.659846           4.762632
hessian_block                2       3           1.188126           0.618001           0.072886          -0.819630          -0.337646          -0.113143           0.230194          -0.033073           0.194290
hessian_block                2       4          -0.229916           0.370563           0.163912          -1.322456           0.902038           0.536225          -0.399936           0.394120           0.018835
hessian_block                2       5          -2.614495           0.323748          -0.564728           0.378627          -0.679541           0.011951          -0.447925          -0.334257          -0.697732
hessian_block                2       6           0.308811          -0.613916          -0.341163          -0.280259          -0.367775          -0.030750           0.498534          -0.238622          -0.148793
hessian_block                2       7           0.225030          -0.543369          -0.331886           0.396376          -1.996975          -1.211965          -0.165194          -1.098473          -0.704416
hessian_block                2       8           0.422226          -0.402763          -0.388273          -0.470326           0.236151           0.298535          -0.615039           0.338394           0.274658
hessian_block                2       9          -1.793469           0.390283          -1.096905           1.321859          -0.991625           0.068894          -1.205849           0.262979          -0.548230
hessian_block                2      10          -0.063205           0.034847           0.187092           0.502063           0.190049           0.126242          -0.474755           0.734712           0.485122
hessian_block                2      11          -0.777864          -0.509191          -0.119916          -0.824798          -2.874780          -1.068810          -0.055404          -1.063129          -0.603194
hessian_block                2      12          -1.377406          -0.323037           0.143308           0.450056           0.022063          -0.154350           0.624362          -0.352113          -0.068652
hessian_block                3       3           6.727015          -0.719371           2.461743          -0.719371           6.971545          -1.559683           2.461743          -1.559683           4.964263
hessian_block                3       4          -0.025142           0.131518          -0.029649          -0.702178           0.619613          -0.248745          -0.199479           0.129240           0.052588
hessian_block                3       5          -0.826311           0.438140          -0.428013          -0.224752           0.127337           0.445379           0.262561          -0.005723           0.362685
hessian_block                3       6          -0.486686           0.283356          -0.373134           0.173458          -1.761424           0.623992          -0.137657           0.955047          -0.946073
hessian_block                3       7           0.341421          -0.406006           0.314343           0.553165          -0.220702           0.073774          -0.301016          -0.230353          -0.073069
hessian_block                3       8          -1.666880          -0.544448          -0.769017          -0.785807          -0.220627          -0.522838          -1.170033           0.246776          -0.871223
hessian_block                3       9          -0.140760           0.450203           0.048692           0.345370          -0.402169          -0.046816          -0.539404           0.002494          -0.033642
hessian_block                3      10           0.192254           0.478781           0.104997           0.987260          -2.612802           1.372522          -0.216853           0.979596          -0.479435
hessian_block                3      11          -0.534547           0.207724          -0.129380          -0.623498           0.237703          -0.173460           0.232245           0.150014           0.259109
hessian_block                3      12          -3.048218           0.506635          -1.287850          -0.360608          -0.637803           0.014389          -0.534821          -0.422559          -0.462629
hessian_block                4       4           6.370918           0.385190          -1.882107           0.385190           7.855459           1.921822          -1.882107           1.921822           4.842388
hessian_block                4       5          -0.089488           1.310162           0.630875           0.358094          -2.102689          -1.100398           0.038526          -1.595192          -0.867363
hessian_block                4       6          -0.466587          -0.762614          -0.327372          -0.206711          -0.097444           0.047503           0.193262          -0.951554          -0.138463
hessian_block                4       7          -2.206236          -1.012284           0.624982          -0.701116          -1.273883          -0.198359           0.617294          -0.080237          -0.515189
hessian_block                4       8          -0.629833          -0.656632          -0.385183           0.473789           0.453123           0.410468          -0.053431           0.853832           0.483105
hessian_block                4       9          -0.450797           0.460850           0.029747          -0.278630          -3.060865          -1.252416          -0.107219          -0.480426          -0.367551
hessian_block                4      10          -0.265184           0.270648           0.046649          -0.624046           0.004100          -0.162833           0.171561           1.193251           0.546065
hessian_block                4      11          -1.824244           0.228433           1.019715          -0.081659          -0.663863           0.232631           1.030220          -0.073316          -0.697249
hessian_block                4      12           0.563321           1.084163           0.430344           0.076569          -0.458057          -0.257097          -0.206237          -0.777993          -0.304682
hessian_block                5       5           5.760047          -0.417951          -1.364968          -0.417951           6.155600          -0.776137          -1.364968          -0.776137           7.175036
hessian_block                5       6          -0.201996           0.020530          -0.045697           0.103054          -0.269349           0.354342          -0.552766          -0.374227           0.290662
hessian_block                5       7          -0.654256           1.041479           0.087456          -1.462246           0.244948           0.514173           0.311161           0.128658          -0.471701
hessian_block                5       8          -0.510898          -0.136525           0.372944           0.872544          -0.175082          -0.453927           0.747063          -0.114360          -0.580087
hessian_block                5       9          -1.538983          -0.599453           1.705420          -0.883677          -1.737509           2.303459           1.826103           1.828797          -2.916875
hessian_block                5      10           0.236810           0.336010           0.206691           0.019272           0.408604          -0.220131           0.783919          -0.365064          -0.595184
hessian_block                5      11           0.717014          -0.768118          -0.026451           1.147729          -0.184836          -0.091381          -0.643917           0.062420           0.694508
hessian_block                5      12           1.107988           0.360876          -0.526250          -0.760134          -0.062509           0.103505          -0.418057          -0.335195           0.462672
hessian_block                6       6           6.221173          -0.346640           1.925705          -0.346640           6.320229           1.577746           1.925705           1.577746           8.734890
hessian_block                6       7           0.226990           0.016398           0.179039           0.899263           0.130203           1.500740           0.536841          -0.108182           0.103402
hessian_block                6       8           0.661145           0.106129           0.348527          -0.849615           0.884785           0.127997          -0.627484           0.447422          -0.399134
hessian_block                6       9           0.265735           0.208674           0.330920           0.670372           0.513457           0.417177           0.206752          -0.011941          -0.351255
hessian_block                6      10          -2.156945          -0.809374          -2.880930          -0.302913          -2.560803          -2.782233          -2.463358          -2.238103          -4.256677
hessian_block                6      11          -0.182222           0.169956          -0.678538          -0.248552           0.088081          -0.381500          -0.387528           0.322705           0.358957
hessian_block                6      12          -0.268525           0.157131          -0.128342           0.887917          -0.956344          -0.146731           1.063572          -0.473176           0.774490
hessian_block                7       7           5.819223           0.883351           1.073516           0.883351           6.783838          -1.021020           1.073516          -1.021020           7.092030
hessian_block                7       8          -0.003354           0.683677           0.100515           0.068101          -0.810507           0.148514          -0.058375          -0.731744           0.219292
hessian_block                7       9           0.290475           0.894381          -0.189505          -0.412045           0.136651          -0.103980           0.338486          -0.320626           0.540780
hessian_block                7      10           0.181290          -0.924512          -0.282941           0.400508          -0.348020           0.099932          -0.742441          -1.507931          -0.116241
hessian_block                7      11          -1.907198          -0.042082          -1.668245           0.032328          -2.284145           2.164970          -1.464819           2.141447          -2.972766
hessian_block                7      12          -0.337506          -0.863556           0.163484          -0.299355           0.572747           0.229002          -0.268230           0.740263          -0.191026
hessian_block                8       8           5.256702          -0.830146          -1.157264          -0.830146           6.733008           1.883742          -1.157264           1.883742           7.649437
hessian_block                8       9           0.576029          -0.757480          -0.027074           0.761966          -0.439720          -0.553773          -0.009308           0.160926           0.474858
hessian_block                8      10          -0.350431           0.435650           0.441782           0.055926          -1.162259          -0.635844          -0.481354           0.180827           0.621073
hessian_block                8      11           0.123065          -0.157519           0.032977          -0.290599           0.762774           0.195037           0.140725          -0.269307          -0.471541
hessian_block                8      12          -1.590010           1.804199           2.159501           1.547381          -2.469656          -2.671090           1.925822          -2.607931          -3.498672
hessian_block                9       9           5.295429          -0.293247          -0.822562          -0.293247           6.874017          -1.372138          -0.822562          -1.372138           7.007566
hessian_block                9      10          -0.235833           0.072146           0.018727          -0.385977           0.298030           0.215587          -0.503496          -0.467906           0.210848
hessian_block                9      11          -0.242507           0.517125          -0.023705          -0.868738           0.383265           0.068393           0.367706           0.172923          -0.591498
hessian_block                9      12          -0.151116          -1.004549           0.432613           0.237575           0.110934          -0.011595           0.066142           1.021095          -0.451357
hessian_block               10      10           5.899132           0.217383           1.842147           0.217383           7.583917           1.760341           1.842147           1.760341           8.276206
hessian_block               10      11           0.176499           0.077740           0.799941           0.226668          -0.585360           0.415175           0.083419          -0.611387          -0.438877
hessian_block               10      12          -0.139426          -0.704454           0.291592          -0.797753           0.937795          -0.082178          -0.729321           0.786247          -0.638725
hessian_block               11      11           5.614770           0.572119           0.764767           0.572119           7.340353          -1.213514           0.764767          -1.213514           7.126196
hessian_block               11      12           0.202657           0.809624          -0.257883           0.266120          -0.192532           0.086568           0.162569          -0.322419           0.267980
hessian_block               12      12           6.245650          -0.679948          -1.476678          -0.679948           6.614148           1.743209          -1.476678           1.743209           7.825129
hessian_block_lv             1       1          21.159879           4.107959           4.564875           4.107959          17.490256           2.948277           4.564875           2.948277           1.795791
hessian_block_lv_atom        1       1          -0.331790           0.189569          -0.009758          -0.426848          -0.557924          -0.274633          -1.412733           0.793113          -0.101613
hessian_block_lv_atom        1       2          -0.552224          -0.862418          -0.352539           0.167617           0.516834           0.179687           0.879107          -0.963907           0.095293
hessian_block_lv_atom        1       3          -0.641068          -0.743970          -0.289846           0.350899           0.174505           0.073164          -1.368984           0.525922          -0.127805
hessian_block_lv_atom        1       4          -0.516204          -0.350382          -0.116814           0.855291           1.366241           0.518283           0.979304          -0.512155           0.171193
hessian_block_lv_atom        1       5           0.510413           0.692687           0.576653          -0.194232          -0.618986           0.099784          -2.126278          -2.404982          -1.217226
hessian_block_lv_atom        1       6           0.754858          -0.165395          -0.275901          -1.357385          -0.181846          -0.405015          -3.022822          -2.035102          -1.490327
hessian_block_lv_atom        1       7          -1.193032          -0.695005          -0.031854          -1.174275          -0.855375          -0.714899           2.793191           1.349431           1.097622
hessian_block_lv_atom        1       8           0.747522           0.137352          -0.226695          -0.742634          -0.655021           0.147314           1.417447           2.053769           1.105832
hessian_block_lv_atom        1       9           0.329337           0.160101          -0.268029          -0.299991          -0.317615          -0.421948           3.151075           1.824221           1.285988
hessian_block_lv_atom        1      10          -0.517215           0.247015           0.357357           1.615493           0.406586           0.529765           2.449079           2.836222           1.438513
hessian_block_lv_atom        1      11           1.413607           1.088022           0.200242           0.583315          -0.147526           0.328597          -2.089393          -2.251593          -1.182033
hessian_block_lv_atom        1      12          -0.004206           0.302423           0.437181           0.622751           0.870126          -0.060102          -1.648990          -1.214938          -1.075439
