# 
# This is the geometry file that corresponds to the current relaxation step.
# If you do not want this file to be written, set the "write_restart_geometry" flag to .false.
#  aims_uuid : 5032033B-C3B7-47C3-AEDF-533428C06DC2                                
# 
lattice_vector      5.82214278      0.00000000      0.00000000
lattice_vector      0.00000000      5.94372874      0.00000000
lattice_vector      0.00000000      0.00000000      7.59427340
atom_frac       0.50169042      0.00139316      0.00116624 Pd
atom_frac       0.00136308      0.00135496      0.50197699 Pd
atom_frac       0.00147420      0.50172051      0.00119051 Pd
atom_frac       0.50179270      0.50168462      0.50195253 Pd
atom_frac       0.61316508      0.11977577      0.40490907 Se
atom_frac       0.89066733      0.88375867      0.90502477 Se
atom_frac       0.11283281      0.38343809      0.59881148 Se
atom_frac       0.39030782      0.62011771      0.09822807 Se
atom_frac       0.39034354      0.88377794      0.59880932 Se
atom_frac       0.11286676      0.11975842      0.09824965 Se
atom_frac       0.89063682      0.62010118      0.40491039 Se
atom_frac       0.61312915      0.38338869      0.90504072 Se
# 
# What follows is the current estimated Hessian matrix constructed by the BFGS algorithm.
# This is NOT the true Hessian matrix of the system.
# If you do not want this information here, switch it off using the "hessian_to_restart_geometry" keyword.
# 
trust_radius             0.0116004111
hessian_block                1       1           5.883863           0.087259          -2.193914           0.087259           6.451664          -1.049334          -2.193914          -1.049334           4.774056
hessian_block                1       2           0.026259           0.519053           0.028399           0.210555           0.510798          -0.200900          -0.093356           0.104093          -0.043058
hessian_block                1       3          -0.027183           0.636586           0.071418          -0.107485          -0.173370           0.118761          -0.198574           0.261420           0.044897
hessian_block                1       4           0.451838           0.235877          -0.072221          -0.065548          -0.265844          -0.245539           0.032016           0.018569          -0.052914
hessian_block                1       5          -0.084272          -0.450611          -0.194317          -0.356730           0.213293           0.340036          -0.209012           0.258108           0.278906
hessian_block                1       6          -1.676528           0.006500           0.689706           0.543169          -0.597904          -0.253925           1.461122          -0.392249          -0.410988
hessian_block                1       7          -0.260954           0.237064           0.267246           0.288112           0.181874           0.165784           0.186735          -0.272332          -0.060648
hessian_block                1       8          -0.163813          -0.632616           0.302382          -0.300335          -2.102507           0.714761           0.135777           0.656657          -0.605278
hessian_block                1       9          -0.090672          -0.035499           0.139473          -0.282841          -0.496294          -0.046749           0.002228          -0.393516          -0.059509
hessian_block                1      10          -2.372013           0.798437           0.988288          -0.056380          -0.160946          -0.334883           0.555973          -0.261422          -0.615838
hessian_block                1      11          -0.041542          -0.505219          -0.172172           0.214919          -0.135224          -0.009290           0.055336           0.393728           0.250253
hessian_block                1      12          -0.079072          -0.896830           0.145711          -0.174696          -1.778515           0.801277           0.265667           0.676276          -0.398013
hessian_block                2       2           6.040014           0.501911           2.424666           0.501911           6.249251           1.585617           2.424666           1.585617           5.061354
hessian_block                2       3           0.927528           0.983922           0.564795          -0.372037          -0.349525          -0.251309           0.277133           0.118010           0.195352
hessian_block                2       4           0.253556           0.573365           0.158895          -0.302277          -0.443975           0.016224           0.070705           0.068571           0.070742
hessian_block                2       5          -2.027914          -0.070110          -1.038846           0.488053          -0.178956           0.180978          -0.518864           0.299468          -0.426503
hessian_block                2       6          -0.558306          -0.366970          -0.211257          -0.460438          -0.474512          -0.299574          -0.312479          -0.169398          -0.507891
hessian_block                2       7          -0.109669          -0.373727          -0.238492          -0.574900          -1.498132          -0.904322          -0.686732          -1.047129          -0.680049
hessian_block                2       8          -0.368759          -0.572929          -0.375162          -0.068866           0.097548          -0.000424          -0.305893          -0.533478          -0.141132
hessian_block                2       9          -2.105612           0.307896          -0.979700           0.491773          -0.238733           0.356866          -1.423027          -0.103610          -0.658666
hessian_block                2      10           0.481602           0.269027           0.400599           0.426793           0.350134           0.613309           0.272693           0.320510           0.497504
hessian_block                2      11          -0.483978          -0.937952          -0.331243          -0.610434          -2.252274          -1.256995           0.094822          -0.687905          -0.433435
hessian_block                2      12          -0.508810          -0.524989          -0.280901          -0.038633          -0.124600          -0.144462           0.078575           0.350240           0.167647
hessian_block                3       3           6.647959          -0.471548           2.554796          -0.471548           6.170690          -1.256633           2.554796          -1.256633           4.976514
hessian_block                3       4           0.364722          -0.283204          -0.034622          -0.162738           0.155522          -0.162231           0.177508          -0.092980           0.010706
hessian_block                3       5          -0.557879           0.068750          -0.344025          -0.064141           0.271395           0.322084           0.343130           0.071141           0.398518
hessian_block                3       6          -0.961565           0.621167          -0.609185          -0.249148          -1.708241           0.629492          -1.004769           0.881673          -0.854327
hessian_block                3       7           0.060271           0.108754           0.264483          -0.030252           0.048752           0.061057          -0.735832           0.101426          -0.393431
hessian_block                3       8          -2.291180          -0.193446          -0.955455          -0.747698          -0.374808          -0.523237          -1.153696          -0.092713          -0.689465
hessian_block                3       9          -0.336024           0.376085           0.066109          -0.225301          -0.101709          -0.030707          -0.856636           0.270010          -0.321424
hessian_block                3      10           0.639462           0.429487           0.313474           1.359759          -2.144674           1.268030           0.405857           0.651471          -0.284019
hessian_block                3      11          -0.459737           0.103631          -0.225060          -0.518512          -0.011719          -0.314797           0.440601           0.032930           0.341151
hessian_block                3      12          -2.440462          -0.280154          -1.109075          -0.510929          -0.135289          -0.372489          -0.807173          -0.433779          -0.322606
hessian_block                4       4           5.915346           0.078795          -1.983002           0.078795           5.781061           1.173794          -1.983002           1.173794           4.761623
hessian_block                4       5          -0.497985           0.461021           0.170867           0.179728          -1.832575          -0.940378           0.024800          -0.989034          -0.535790
hessian_block                4       6          -0.111327           0.259391           0.013662          -0.217916           0.152689          -0.082820           0.243555          -0.032311          -0.065393
hessian_block                4       7          -1.927527          -0.515320           0.802716          -0.201446           0.037660           0.321312           0.768348           0.446232          -0.362854
hessian_block                4       8          -0.279179          -0.111590          -0.150407           0.115621           0.100112           0.103975          -0.146107          -0.154652          -0.048168
hessian_block                4       9          -0.248449           0.646281           0.159448           0.104950          -1.553240          -0.804949           0.037089          -0.578857          -0.409423
hessian_block                4      10          -0.335799          -0.033919           0.007076          -0.190168           0.103698           0.134500           0.075908           0.091326           0.169618
hessian_block                4      11          -1.929354          -0.368625           0.783601          -0.740163          -0.347118           0.170605           0.914371           0.081416          -0.508807
hessian_block                4      12          -0.089934           0.114528          -0.084189           0.344560          -0.240966          -0.070201           0.012987           0.353630           0.072524
hessian_block                5       5           5.267667          -0.489946          -1.178369          -0.489946           5.851602          -1.031797          -1.178369          -1.031797           7.956764
hessian_block                5       6           0.409761          -0.146338          -0.253431           0.401509          -0.256512           0.175889           0.295669          -0.657964           0.770975
hessian_block                5       7          -0.357511           0.870680          -0.090446          -0.714762           0.233500           0.308906           0.611345           0.156798          -1.702864
hessian_block                5       8           0.180586           0.050321           0.305773           0.497418          -0.409385          -0.737452           0.423613           0.388140          -1.187902
hessian_block                5       9          -1.329090          -0.406001           1.685061          -0.179754          -1.790473           1.914617           1.907699           1.985813          -3.978407
hessian_block                5      10          -0.240884           0.387082           0.205871          -0.153703           0.337745          -0.128554          -0.027913           0.059065          -1.087054
hessian_block                5      11           0.512039          -0.642681           0.081707           0.993353          -0.623636          -0.486847          -0.656431          -0.115253           1.595830
hessian_block                5      12           0.291392           0.129971          -0.396223          -0.363164          -0.168973           0.345556           0.030707          -0.687523           1.019390
hessian_block                6       6           5.300544           0.411679           2.070460           0.411679           5.487793           1.845415           2.070460           1.845415           9.832440
hessian_block                6       7           0.061841          -0.253462          -0.194902           0.234965          -0.068481           0.888550           0.230723          -0.025072          -0.751868
hessian_block                6       8           0.121695           0.372025           0.383153           0.254879           0.048706           0.079253           0.013847          -0.085397          -1.037560
hessian_block                6       9           0.084044           0.100484           0.033868           0.060325           0.286134          -0.085930           0.243709          -0.003100          -1.023813
hessian_block                6      10          -1.787076          -1.475318          -3.458089          -1.377018          -1.761086          -3.250679          -2.310981          -2.341059          -5.165713
hessian_block                6      11           0.109792           0.426726          -0.066141          -0.042849           0.367475           0.087297          -0.286572           0.125998           0.960071
hessian_block                6      12           0.573035           0.400689           0.548553           0.084267           0.170963           0.806341           0.409319           0.314151           1.355933
hessian_block                7       7           5.163845           0.489889           0.882385           0.489889           5.830063          -1.497041           0.882385          -1.497041           8.206904
hessian_block                7       8          -0.075937          -0.002168           0.085893          -0.276497          -0.401866           0.690049           0.201688          -0.453779           1.538556
hessian_block                7       9           0.359521           0.603146          -0.187716          -0.723107          -0.890661          -0.501960           0.220875          -0.458269           1.831283
hessian_block                7      10           0.130414          -0.666468          -0.288787           0.303762          -0.373975          -0.241585          -0.201426          -0.880397           0.958368
hessian_block                7      11          -1.563409           0.396604          -1.390206           0.257154          -2.056450           2.447198          -1.502396           2.220005          -4.045818
hessian_block                7      12           0.085023           0.177279           0.523844          -0.125190           0.604740          -0.256585          -0.411732           0.228191          -1.435713
hessian_block                8       8           4.814558           0.050969          -0.881126           0.050969           5.338234           1.471284          -0.881126           1.471284           7.391353
hessian_block                8       9           0.254753          -0.427619          -0.199514           0.206576           0.039997           0.032752           0.105959           0.514663           1.528875
hessian_block                8      10          -0.188559          -0.342614           0.233930          -0.596730          -0.133829           0.192609          -0.478194           0.300906           1.033022
hessian_block                8      11           0.290774           0.159003           0.024744           0.448324           0.563014           0.720174           0.210423          -0.731471          -1.339981
hessian_block                8      12          -0.729027           1.085739           1.652737           0.981264          -1.118193          -2.141598           1.446763          -1.882305          -3.340455
hessian_block                9       9           5.034951          -0.508722          -0.759501          -0.508722           5.666003          -1.425447          -0.759501          -1.425447           8.223017
hessian_block                9      10          -0.049605           0.239393          -0.118835          -0.201451           0.287447          -0.043652          -0.352520           0.161599           1.023369
hessian_block                9      11          -0.143585           0.814034           0.018486          -0.631401           0.438901           0.584221           0.379341           0.098056          -1.629039
hessian_block                9      12           0.135678           0.002673           0.621954           0.176801          -0.000346          -0.348258           0.015651           0.331852          -1.424398
hessian_block               10      10           5.910676           1.080709           2.233212           1.080709           6.516472           2.276972           2.233212           2.276972           8.879064
hessian_block               10      11           0.014531          -0.185266           0.236784          -0.212191          -0.737838           0.216905          -0.031548          -0.367268          -1.162927
hessian_block               10      12          -0.636838          -0.410308          -0.409394          -0.473625          -0.636124          -0.595878          -0.485191          -0.118796          -1.143528
hessian_block               11      11           5.175882           0.732791           0.770081           0.732791           6.501226          -1.577736           0.770081          -1.577736           8.019624
hessian_block               11      12           0.084495           0.109010          -0.388030           0.006955          -0.059332           0.527500           0.269416          -0.580736           1.054942
hessian_block               12      12           4.880427           0.092391          -0.824988           0.092391           5.133659           1.448796          -0.824988           1.448796           7.496141
hessian_block_lv             1       1          27.772533          -1.693034           5.507052          -1.693034          24.536906           2.836665           5.507052           2.836665           1.795891
hessian_block_lv_atom        1       1          -0.087325          -0.139744          -0.027724          -0.458524          -0.501094          -0.188898          -0.069700          -0.192867           0.087059
hessian_block_lv_atom        1       2          -0.680216          -0.857066          -0.265698          -0.336290          -0.610470          -0.136254          -0.155499          -0.271545          -0.207360
hessian_block_lv_atom        1       3          -0.719761          -0.894625          -0.302304           0.205641           0.325454           0.073754          -0.323678          -0.494579          -0.053188
hessian_block_lv_atom        1       4          -0.107672          -0.099680          -0.040444           0.282089           0.150599           0.111459           0.092678           0.011073          -0.072992
hessian_block_lv_atom        1       5           0.259235           0.276480           0.327224           0.158830           0.148258           0.208428          -2.821600          -3.214020          -1.634647
hessian_block_lv_atom        1       6          -0.023101          -0.078776          -0.209590          -0.124542           0.133427          -0.147235          -3.260489          -3.587232          -1.551273
hessian_block_lv_atom        1       7          -0.257964          -0.282440           0.181706          -0.686235          -0.688091          -0.427041           3.100977           3.707290           1.643819
hessian_block_lv_atom        1       8           0.250096           0.303642          -0.145217           0.651709           0.659193           0.402624           2.776396           3.183261           1.567828
hessian_block_lv_atom        1       9           0.229095           0.291413          -0.171369          -0.241727          -0.068832          -0.229501           3.193826           3.746433           1.658758
hessian_block_lv_atom        1      10           0.357198           0.608342           0.388847           0.131593          -0.201086           0.167656           3.134491           3.534704           1.653965
hessian_block_lv_atom        1      11           0.559479           0.671060          -0.031159           0.805978           1.057763           0.468102          -2.807235          -3.265800          -1.650487
hessian_block_lv_atom        1      12           0.220937           0.201392           0.295730          -0.388523          -0.405122          -0.303096          -2.860169          -3.156716          -1.441480
symmetry_n_params 39 3 36
symmetry_params a1 b2 c3 x0 x1 x2 x3 x4 x5 x6 x7 x8 x9 x10 x11 x12 x13 x14 x15 x16 x17 x18 x19 x20 x21 x22 x23 x24 x25 x26 x27 x28 x29 x30 x31 x32 x33 x34 x35
symmetry_lv a1 , 0 , 0 
symmetry_lv 0 , b2 , 0 
symmetry_lv 0 , 0 , c3
symmetry_frac x0 , x1 , x2
symmetry_frac x3 , x4 , x5
symmetry_frac x6 , x7 , x8
symmetry_frac x9 , x10 , x11
symmetry_frac x12 , x13 , x14
symmetry_frac x15 , x16 , x17
symmetry_frac x18 , x19 , x20
symmetry_frac x21 , x22 , x23
symmetry_frac x24 , x25 , x26
symmetry_frac x27 , x28 , x29
symmetry_frac x30 , x31 , x32
symmetry_frac x33 , x34 , x35
