# 
# This is the geometry file that corresponds to the current relaxation step.
# If you do not want this file to be written, set the "write_restart_geometry" flag to .false.
#  aims_uuid : 0BB9D715-E1E5-4675-AE4D-E57A967954F2                                
# 
lattice_vector      5.87673984      0.00000000      0.00000000
lattice_vector      0.00000000      5.96651235      0.00000000
lattice_vector      0.00000000      0.00000000      7.36828719
atom_frac       0.50233365      0.00238725      0.00233272 Pd
atom_frac       0.00242209      0.00233772      0.50239432 Pd
atom_frac       0.00245305      0.50234304      0.00236083 Pd
atom_frac       0.50234540      0.50230334      0.50236536 Pd
atom_frac       0.61487381      0.12031803      0.40456430 Se
atom_frac       0.88982035      0.88448159      0.90447415 Se
atom_frac       0.11494557      0.38451688      0.60024164 Se
atom_frac       0.38982890      0.62030922      0.10017156 Se
atom_frac       0.38985952      0.88453395      0.60025372 Se
atom_frac       0.11494660      0.12029708      0.10024188 Se
atom_frac       0.88980242      0.62025280      0.40455528 Se
atom_frac       0.61487146      0.38442188      0.90454707 Se
# 
# What follows is the current estimated Hessian matrix constructed by the BFGS algorithm.
# This is NOT the true Hessian matrix of the system.
# If you do not want this information here, switch it off using the "hessian_to_restart_geometry" keyword.
# 
trust_radius             0.0232008222
hessian_block                1       1           6.095269          -0.073098          -2.105810          -0.073098           7.348221          -1.081842          -2.105810          -1.081842           4.973402
hessian_block                1       2          -0.052106           1.015759           0.081368           0.385690          -0.444168           0.070177          -0.163038          -0.236254          -0.120497
hessian_block                1       3          -0.329118           1.691493          -0.104075          -0.174545           0.095972           0.010257          -0.253306           0.607161           0.050139
hessian_block                1       4           0.480998           0.309482          -0.180950           0.223300          -1.861734          -0.037371           0.080719          -0.590563           0.037429
hessian_block                1       5           0.130458          -1.317436          -0.195420          -0.258369           0.875361           0.437159          -0.334944           0.895861           0.260961
hessian_block                1       6          -1.796123          -0.323398           0.685016           0.242881          -1.138444          -0.338235           1.345882          -0.587352          -0.293437
hessian_block                1       7          -0.269386           0.546454           0.296339           0.030993           1.096474           0.174256           0.295432          -0.118914          -0.039750
hessian_block                1       8          -0.348109          -0.259719           0.483952          -0.305739          -2.738689           0.636626           0.447975          -0.136055          -0.322646
hessian_block                1       9          -0.131826           0.204791           0.332954          -0.770576           0.402994          -0.542500           0.080111          -0.515965          -0.066724
hessian_block                1      10          -2.372523           0.980471           0.769210           0.168238           0.045769          -0.407515           0.708969          -0.218916          -0.815199
hessian_block                1      11          -0.156749          -0.743744          -0.336475           0.405491           0.015710          -0.061255          -0.024368           0.650068           0.258424
hessian_block                1      12           0.315130          -2.031053           0.273889           0.125733          -2.050443           1.140242          -0.077623           1.332768          -0.820236
hessian_block                2       2           7.215119           0.216947           2.333794           0.216947          10.499641           3.201562           2.333794           3.201562           5.860941
hessian_block                2       3           2.025293          -0.106964           0.343359          -0.929496          -0.965445          -0.401206           0.798056          -0.082976           0.094805
hessian_block                2       4          -0.092137           0.598534           0.216440          -1.524944           4.326369           1.916431          -0.466103           1.895893           0.810248
hessian_block                2       5          -3.333867           0.544226          -0.819453           1.422213          -0.638688          -0.211431          -0.048356          -0.740710          -0.990757
hessian_block                2       6          -0.539198          -0.522208          -0.145829          -0.876015          -1.419506          -0.459109          -1.024332          -0.206822          -0.495839
hessian_block                2       7          -0.081893          -1.115627          -0.615521           0.114927          -3.399229          -1.655304          -0.723221          -3.047002          -1.542554
hessian_block                2       8          -0.052611          -0.773760          -0.533289          -0.335481           0.084401           0.063946          -0.761303           1.457236           0.501904
hessian_block                2       9          -1.449474           0.937978          -0.844767           0.818289          -4.849831          -1.050377          -1.411205          -1.114848          -1.045611
hessian_block                2      10           0.695287          -0.350509           0.181467           1.330527           1.571373           1.068122           0.584416           0.542146           0.707845
hessian_block                2      11          -0.675700          -1.210491          -0.291889          -1.045386          -4.438854          -2.320227           0.469693          -0.476177          -0.466945
hessian_block                2      12          -2.092797           1.396182           0.338720          -0.207340           1.320962           0.083845           0.167188          -1.498485          -0.211676
hessian_block                3       3           8.378846          -0.482299           3.139591          -0.482299           6.803637          -1.366850           3.139591          -1.366850           5.194460
hessian_block                3       4           0.264969           0.084929          -0.155627          -2.277513          -0.208044          -0.788623          -0.669303          -0.171417          -0.272081
hessian_block                3       5          -2.127160           0.461472          -0.986880           0.874628           0.051907           0.674278           1.040192           0.159503           0.586726
hessian_block                3       6          -1.179966           0.284134          -0.580024          -0.651085          -1.797266           0.443892          -1.645076           1.160146          -1.110140
hessian_block                3       7           0.212893           0.347334           0.224240           1.258878           0.174616           0.557766          -0.731110           0.292881          -0.397876
hessian_block                3       8          -1.868702          -0.264670          -0.758270          -1.218458          -0.550922          -0.808237          -2.234483          -0.393189          -0.901200
hessian_block                3       9           0.233437          -0.081354           0.438249           1.146071           0.477525           0.266425          -0.878786           0.225893          -0.303408
hessian_block                3      10           1.109857           0.512519           0.351543           1.943687          -2.618414           1.549831           0.782080           0.539744          -0.118270
hessian_block                3      11          -0.591406           0.119770          -0.307595          -0.886703           0.533941          -0.631144           0.871477          -0.113652           0.486687
hessian_block                3      12          -4.563030           0.122202          -1.909982          -1.291734          -0.350486          -0.421526           0.086135           0.057888          -0.207976
hessian_block                4       4           6.189507           0.381145          -1.890584           0.381145          11.917402           3.590987          -1.890584           3.590987           5.759443
hessian_block                4       5          -0.191996           2.285658           0.950194          -0.020372          -3.100554          -1.518579          -0.105770          -2.622308          -1.239587
hessian_block                4       6          -0.288712           0.091290          -0.012941          -0.462248          -0.495468          -0.145986           0.377249           0.366364           0.289047
hessian_block                4       7          -1.942120          -1.319667           0.543659          -0.350507          -2.766569          -0.764470           0.710164          -1.567949          -1.110707
hessian_block                4       8          -0.446289          -0.753121          -0.286694          -0.083893           0.501347           0.374015          -0.100050           2.417666           0.951816
hessian_block                4       9          -0.448263           0.584524           0.092192           0.034401          -6.711542          -2.743763          -0.064466          -1.565297          -0.769839
hessian_block                4      10          -0.361721          -0.842341          -0.396484          -0.235091           0.874876           0.191650           0.197886           0.181152           0.031929
hessian_block                4      11          -1.954576          -0.450666           0.756227          -0.655738          -2.191174          -0.521744           0.787904          -0.136712          -0.674164
hessian_block                4      12           0.356246           3.602330           1.299116           0.399355           1.362113           0.403973           0.207805          -1.754341          -0.711670
hessian_block                5       5           7.373002          -1.705232          -2.146159          -1.705232           7.131484          -0.233183          -2.146159          -0.233183           8.330657
hessian_block                5       6           0.285746          -0.363720          -0.123643           0.847913          -1.006235          -0.234586           1.049361          -0.624465          -0.057652
hessian_block                5       7          -0.124480           1.161039          -0.076003          -1.990684           1.081693           1.023737           0.987188          -0.103424          -0.918507
hessian_block                5       8          -0.630284           0.388189           0.768222           0.856032          -0.553607          -1.268787           1.467528          -0.385100          -1.519151
hessian_block                5       9          -2.607538           0.344474           2.311554          -0.847110          -1.945557           2.776817           2.125565           1.734658          -3.500951
hessian_block                5      10          -0.521932           0.569406           0.435161          -0.983983           1.039795           0.171024          -0.305026          -0.185344          -0.479639
hessian_block                5      11           0.432940          -1.185351           0.079475           1.697759          -0.817101          -0.146491          -1.570335           0.673351           1.570550
hessian_block                5      12           2.881022          -1.226906          -1.799732           0.151386          -0.471472           0.219120          -0.556566          -0.257920           1.059213
hessian_block                6       6           5.944982           0.923675           1.819964           0.923675           7.303833           1.808868           1.819964           1.808868           9.225005
hessian_block                6       7          -0.227048          -0.283391           0.138919           0.014297           0.137131           0.044488           0.386332           0.851343           0.299749
hessian_block                6       8           0.296582           0.489614           0.422870           0.428229           1.141912           0.684751          -0.171900          -0.037407          -0.033108
hessian_block                6       9           0.113247          -0.283195          -0.359534           0.561794           1.937143          -0.586672           0.312824           0.887660          -0.222919
hessian_block                6      10          -1.985050          -1.263550          -3.342812          -1.391165          -3.172394          -3.575584          -2.320938          -2.529462          -4.684580
hessian_block                6      11           0.645899           1.053695          -0.193287           0.187215           0.871793           1.103384          -0.313352          -0.423616          -0.036649
hessian_block                6      12           0.295555           0.261705           1.410791           0.109856          -0.715475           0.412892           0.464494           0.176637           0.222388
hessian_block                7       7           5.870866           0.775852           1.546983           0.775852           7.343546          -0.712962           1.546983          -0.712962           8.949834
hessian_block                7       8          -0.165002           0.439052          -0.088459          -0.267048          -0.495852           0.682495           0.075827          -1.412455           0.350608
hessian_block                7       9           0.022797           1.091851          -1.048593          -0.277960           1.159238           1.749053           0.517598           0.081632           1.882673
hessian_block                7      10           0.235402           0.142328          -0.329603          -0.049416          -0.663287          -1.345466          -0.503982          -0.506674          -0.123452
hessian_block                7      11          -2.173742           0.381155          -1.461219           0.858410          -1.662693           3.775240          -1.830926           2.447403          -3.984713
hessian_block                7      12           0.207619          -1.908143           0.456112          -0.375980          -0.358043          -0.455289          -0.317135           0.722582          -0.263435
hessian_block                8       8           5.651478           0.055857          -1.213588           0.055857           6.998641           1.610885          -1.213588           1.610885           8.267058
hessian_block                8       9           0.820343          -0.510374          -0.462767           0.355798          -0.066451          -2.098301          -0.097847           1.006660           0.701192
hessian_block                8      10          -0.376503          -0.245091          -0.296337          -0.802677          -0.881194           0.074522          -0.805671          -0.238415           0.242485
hessian_block                8      11           0.478725           0.338146          -0.233706           0.397966           0.513695          -0.017250           0.608064          -0.774832          -1.087727
hessian_block                8      12          -1.793721           1.287816           3.482807           0.727471          -2.306257          -1.080549           1.500712          -1.969106          -4.049365
hessian_block                9       9           6.206084          -1.367532          -1.249341          -1.367532          11.621447          -0.144814          -1.249341          -0.144814           8.170553
hessian_block                9      10           0.066617           1.000584           0.033513           0.407450          -1.164646          -0.839397          -0.366325           0.397416           0.180652
hessian_block                9      11          -0.148003           1.666523           0.093518          -1.579100           2.441042           1.048164           1.328377          -0.467704          -1.310393
hessian_block                9      12          -1.111507          -2.320278           0.538520           0.250488          -1.654335          -0.804344          -0.171996           2.444419          -0.613360
hessian_block               10      10           6.388182           0.932264           2.211100           0.932264           8.385763           2.734493           2.211100           2.734493           8.611181
hessian_block               10      11          -0.098449          -0.471416           0.403214          -0.538579          -1.808131          -0.542564           0.290188           0.287203          -0.368691
hessian_block               10      12          -1.213255          -0.848416          -0.585717          -0.897502           0.037513          -0.173573           0.093053           0.091121          -0.082395
hessian_block               11      11           6.081704           0.731706           0.820191           0.731706           8.417519          -2.024104           0.820191          -2.024104           8.196665
hessian_block               11      12          -0.274740           0.426959          -1.436916          -0.229327          -0.228721           0.358769           0.671545           0.337990           0.518822
hessian_block               12      12           8.559380           1.237600          -2.067611           1.237600           7.061667           0.316443          -2.067611           0.316443           8.261551
hessian_block_lv             1       1          23.307721          -0.410929           6.277498          -0.410929          18.942154           1.658475           6.277498           1.658475           2.475925
hessian_block_lv_atom        1       1          -0.425815           0.495220          -0.125762           0.179872          -2.316125          -0.047801          -0.342580           0.018867          -0.018486
hessian_block_lv_atom        1       2           1.099844          -2.991708           0.187980          -0.833806          -0.091104          -0.217878          -0.219854          -0.580570          -0.070356
hessian_block_lv_atom        1       3           1.250401          -3.979591           0.234574          -0.422015           0.803767          -0.124428           0.456395          -1.926798           0.137468
hessian_block_lv_atom        1       4          -0.762075           0.118454          -0.166479          -1.368455           2.851624          -0.302047          -0.849591           1.191212          -0.202438
hessian_block_lv_atom        1       5          -2.319752           3.716388          -0.066797           1.490700          -3.330964           0.292747          -3.062110          -3.156116          -1.532631
hessian_block_lv_atom        1       6           0.663281           0.949608          -0.298821          -0.737918           3.217750          -0.097007          -5.210969           1.398162          -1.987157
hessian_block_lv_atom        1       7          -1.384703          -0.311251           0.151613          -0.240093          -0.994427          -0.108874           2.910737           2.748145           1.508604
hessian_block_lv_atom        1       8           1.103752          -0.412367          -0.230464           1.350101           0.788335           0.387581           2.278092           3.208686           1.359880
hessian_block_lv_atom        1       9           1.538504          -1.399547          -0.141147           0.765897           0.389500           0.233368           3.745059           2.584462           1.696779
hessian_block_lv_atom        1      10           1.009419          -1.382091           0.663323           2.197396          -4.067496           0.464269           5.152601          -0.286815           1.933649
hessian_block_lv_atom        1      11           1.853849           0.843683           0.041087          -0.023793           1.192928           0.063842          -2.809802          -2.828012          -1.508591
hessian_block_lv_atom        1      12          -3.626706           4.353192          -0.249103          -2.357886           1.556208          -0.543772          -2.047982          -2.371228          -1.316722
