# 
# This is the geometry file that corresponds to the current relaxation step.
# If you do not want this file to be written, set the "write_restart_geometry" flag to .false.
#  aims_uuid : 785493A8-3679-4CF9-A66D-013B7522C0C6                                
# 
lattice_vector      5.83914393      0.00000000      0.00000000
lattice_vector      0.00000000      5.95277898      0.00000000
lattice_vector      0.00000000      0.00000000      7.51110798
atom_frac       0.50197828      0.00191137      0.00192951 Pd
atom_frac       0.00190561      0.00185535      0.50190236 Pd
atom_frac       0.00189139      0.50197197      0.00190145 Pd
atom_frac       0.50195680      0.50191623      0.50193417 Pd
atom_frac       0.61352045      0.11997873      0.40453456 Se
atom_frac       0.89047104      0.88393488      0.90464332 Se
atom_frac       0.11343270      0.38388596      0.59940478 Se
atom_frac       0.39045345      0.62007242      0.09931062 Se
atom_frac       0.39039902      0.88397148      0.59939598 Se
atom_frac       0.11341154      0.11995757      0.09930202 Se
atom_frac       0.89049343      0.62010310      0.40452203 Se
atom_frac       0.61350337      0.38385801      0.90463630 Se
# 
# What follows is the current estimated Hessian matrix constructed by the BFGS algorithm.
# This is NOT the true Hessian matrix of the system.
# If you do not want this information here, switch it off using the "hessian_to_restart_geometry" keyword.
# 
trust_radius             0.0116004111
hessian_block                1       1           6.603004          -0.843585          -2.663042          -0.843585           8.435556          -0.310421          -2.663042          -0.310421           5.909971
hessian_block                1       2          -1.266789           2.629643           1.456038          -2.253366           2.581565           4.736405          -1.502213           1.358404           1.992900
hessian_block                1       3          -1.944373           3.835415           1.519770           0.492068          -0.699469          -0.929469          -1.383915           2.114231           1.366074
hessian_block                1       4           0.352125           0.403585           0.064432          -0.987613          -0.712479           3.003665          -0.577190           0.142610           1.552477
hessian_block                1       5           0.823478          -2.089575          -0.670781          -1.419473           2.251576           1.534524           0.190118           0.248496          -0.453440
hessian_block                1       6           0.011092          -2.513057          -1.616755           2.322515          -3.548682          -3.057175           4.857910          -5.134801          -4.149090
hessian_block                1       7          -1.174961           1.893332           1.466945           0.717388           0.221431          -1.114936           0.991213          -0.718200          -1.709611
hessian_block                1       8           1.021394          -2.096235          -1.415083           0.265348          -3.469267          -0.308181          -1.126843           1.777886           2.183289
hessian_block                1       9          -0.280988           0.174334           0.593254           1.794054          -2.296804          -5.174124           0.344732          -0.770735          -1.056558
hessian_block                1      10          -4.415380           3.700395           2.927533          -2.353346           3.043310           2.686079          -1.713548           2.876129           1.700109
hessian_block                1      11           1.554286          -3.008093          -2.930559           2.177676          -1.969354          -2.972348           0.148628           0.203054           0.343023
hessian_block                1      12           0.283024          -2.086157           1.268246           0.088333          -2.190357           1.905980           2.434148          -1.786655          -4.577278
hessian_block                2       2           9.043728           6.871608           5.619987           6.871608          33.610945          13.571349           5.619987          13.571349          10.638603
hessian_block                2       3           4.986304           7.263759           4.183394          -1.835682          -6.148449          -2.849980           3.010178           6.233819           3.241298
hessian_block                2       4           0.585723           1.595177           0.672902           2.566488          19.595116           8.348441           1.715214           9.428742           4.030646
hessian_block                2       5          -3.824763          -1.521889          -2.146578           3.071271           4.218079           2.398184          -1.516405          -4.852517          -2.781434
hessian_block                2       6          -4.720223         -11.307193          -5.370831          -5.250263         -13.929208          -6.456763          -8.011361         -19.650193         -10.166100
hessian_block                2       7           2.113037           4.307294           1.958990          -1.852946          -9.674453          -4.353374          -2.670337         -10.542291          -4.859250
hessian_block                2       8          -3.356510         -10.285606          -4.959866          -1.824322          -4.423837          -1.972649           3.258594          14.667519           6.427951
hessian_block                2       9          -1.582580           2.348879          -0.131120          -5.512655         -27.424347         -11.153080          -2.476260          -5.189618          -2.750744
hessian_block                2      10           4.887947          10.016481           5.453586           6.022197          16.438992           8.298663           5.419558          13.207427           7.028006
hessian_block                2      11          -4.785485         -13.718610          -6.029959          -5.153842         -18.983069          -8.993104          -0.100552          -0.537194          -0.490063
hessian_block                2      12          -0.514478           6.683465           2.251705           0.268503           5.785692           1.803910          -5.704658         -21.073453          -9.209948
hessian_block                3       3          12.661691          -2.018961           6.205255          -2.018961           7.427229          -2.645284           6.205255          -2.645284           7.465698
hessian_block                3       4           0.780853          -0.492363           0.271740           1.383057          -3.962802           2.773152           1.419516          -2.053357           1.643113
hessian_block                3       5          -3.445139           0.514982          -1.925667           3.511302          -0.771440           2.601433          -0.615436           1.191761          -0.596019
hessian_block                3       6          -6.190373           3.067558          -4.419285          -6.048540           1.136242          -3.797925         -11.162981           5.209006          -7.965516
hessian_block                3       7           2.966774          -0.958955           2.243801          -0.872797           1.684048          -1.220795          -2.544152           2.133566          -2.328508
hessian_block                3       8          -5.847089           1.893231          -3.764045          -2.872087           0.468749          -2.161170           2.325997          -3.320896           2.728853
hessian_block                3       9           0.172786          -0.087307           0.549618          -5.666289           5.615521          -5.765305          -1.701357           1.295249          -1.336337
hessian_block                3      10           6.709829          -1.834612           4.331185           8.333901          -5.609046           6.478873           7.318045          -2.197042           4.490091
hessian_block                3      11          -5.472887           2.885162          -4.163153          -5.629847           3.658411          -4.648036           0.005407          -0.002540           0.161120
hessian_block                3      12          -3.812463          -1.625122          -0.955716          -1.218912          -1.151971           0.037006          -6.953457           4.168984          -5.768001
hessian_block                4       4           6.035124           0.760310          -1.690546           0.760310          22.621621           8.652028          -1.690546           8.652028           8.169494
hessian_block                4       5          -0.614254           1.132308           0.156062           0.397817          -0.482979           0.050141          -0.219026          -5.090533          -2.349517
hessian_block                4       6          -0.622969          -5.867570          -3.160870          -0.974618          -7.763719          -3.991349          -0.846054         -10.642545          -5.509156
hessian_block                4       7          -1.749133           1.504226           2.037116          -0.534777          -6.712474          -2.651373           0.474194          -6.778887          -3.742995
hessian_block                4       8          -0.833051          -6.458187          -3.168851          -0.261958          -2.348834          -1.040290           0.469262          10.999479           5.091255
hessian_block                4       9          -0.212659           2.061510           0.874835          -0.841498         -21.813427         -10.245734          -0.129827          -4.411015          -2.200916
hessian_block                4      10           0.178382           4.612384           2.597195           0.725410           9.784107           4.882497           0.923328           7.121537           3.687117
hessian_block                4      11          -2.484274          -8.125333          -3.131957          -1.407051         -11.873030          -5.356595           0.822841           0.421613          -0.314460
hessian_block                4      12           0.150042           7.418418           2.929477           0.629965           5.315924           2.182678          -0.813244         -14.396938          -6.955194
hessian_block                5       5           6.794237          -2.232470          -1.067523          -2.232470           8.279888          -1.495432          -1.067523          -1.495432           9.234324
hessian_block                5       6           2.532987          -3.579642           1.609155           2.585460          -4.109674           2.290056           4.437513          -6.632146           4.197734
hessian_block                5       7          -1.705686           2.962754          -0.596960          -0.896731          -0.287771           1.947462           0.914496          -1.177698           0.238502
hessian_block                5       8           1.372620          -2.137217           2.217589           1.231105          -1.829697          -0.324038          -0.344628           2.829207          -4.108940
hessian_block                5       9          -1.506811           0.094112           1.392928           0.891533          -6.076469           6.808540           1.997508           1.190585          -3.153244
hessian_block                5      10          -2.906251           3.995467          -1.549459          -2.760470           4.598280          -3.037005          -2.792004           3.900364          -3.552431
hessian_block                5      11           2.419954          -4.299172           2.035783           2.576241          -3.934222           2.829141          -0.447281          -0.172934           1.627697
hessian_block                5      12           1.625539          -0.364752          -1.880767           0.569506          -0.208546          -0.515931           1.888881          -5.026227           4.798632
hessian_block                6       6          11.444552           7.537462          13.048841           7.537462          14.594428          14.911615          13.048841          14.911615          30.770887
hessian_block                6       7          -3.046887          -3.802404          -5.480489           2.772381           3.429388           5.581215           3.822130           4.282831           5.750174
hessian_block                6       8           4.765883           6.178450           9.232751           2.717846           3.942221           4.939681          -6.153233          -7.645098         -11.725126
hessian_block                6       9          -0.818612          -0.853212          -1.239414          10.674691          13.431405          17.885552           2.152234           2.616112           2.361211
hessian_block                6      10          -7.927148          -8.363064         -15.124242          -9.711900         -12.112677         -19.142394          -9.635157         -11.212667         -19.578886
hessian_block                6      11           6.706139           8.341465          11.207454           7.354917           9.039275          13.707145          -0.127008           0.373072           1.498441
hessian_block                6      12          -0.568530          -1.673253          -0.919928          -1.145496          -2.461977          -1.032137           9.850779          11.687289          17.617293
hessian_block                7       7           7.078743          -0.307618          -0.565974          -0.307618           8.583098           1.424388          -0.565974           1.424388          11.420980
hessian_block                7       8          -2.085355           2.741385           3.293986          -1.605262           0.981998           1.966221           2.793553          -4.989748          -3.809454
hessian_block                7       9           0.887953           0.100228          -0.944415          -5.445988           7.179125           8.987764          -0.688163           1.153601           3.430741
hessian_block                7      10           3.249589          -2.684471          -3.426125           4.172182          -4.642545          -5.480125           3.120863          -4.118332          -3.288948
hessian_block                7      11          -5.069533           3.532875           2.831481          -2.971683           2.727508           8.177358          -1.486688           2.163208          -4.059321
hessian_block                7      12           0.101365          -2.714918          -2.176496           0.252124          -1.842329          -2.274926          -4.802994           6.178683           6.059557
hessian_block                8       8           8.940169           2.223563          -6.356508           2.223563           7.720509          -1.014822          -6.356508          -1.014822          15.951466
hessian_block                8       9          -0.383236          -0.588428           0.883628           9.502734           4.462222         -15.125869           1.776462           1.676813          -1.342556
hessian_block                8      10          -4.773609          -2.659951           5.653495          -7.625992          -4.239798           9.200330          -6.633841          -3.127326           8.209185
hessian_block                8      11           5.327751           3.067794          -7.127534           6.781009           3.178784          -8.570281           0.450181          -0.546305          -1.268629
hessian_block                8      12          -2.583057           0.306351           5.724218          -0.717135          -2.796026           1.192294           9.327226           1.912067         -15.235430
hessian_block                9       9           5.275427          -2.707020          -1.184759          -2.707020          33.300750           3.864520          -1.184759           3.864520           9.234832
hessian_block                9      10           0.705978          -8.657702          -1.601471           0.859331         -14.957213          -2.886141           0.346205         -11.453031          -1.118890
hessian_block                9      11          -1.300002          13.731121           2.506125          -1.872506          16.695960           3.411465           0.509994          -0.328676          -1.661628
hessian_block                9      12           0.608655          -7.762979          -0.995224           0.470080          -6.469698          -1.950839          -1.650752          21.699443           2.695954
hessian_block               10      10          12.651482           9.522508          10.181030           9.522508          18.875678          13.255554          10.181030          13.255554          19.087637
hessian_block               10      11          -6.143797          -9.080976          -7.062508          -7.374695         -11.442759          -8.903623          -0.396719          -0.803686          -1.735993
hessian_block               10      12          -0.651112           1.897155           0.528030          -0.272740           1.910695           0.651008          -9.046008         -13.452641         -11.825131
hessian_block               11      11          12.830190           8.898700           0.701687           8.898700          17.204474          -1.471389           0.701687          -1.471389           8.135913
hessian_block               11      12          -2.016435          -3.378918          -0.080492          -2.224934          -2.654952           0.701777          11.163137          12.790265           0.865766
hessian_block               12      12           8.943356           3.300709          -5.693055           3.300709           8.410567          -2.700820          -5.693055          -2.700820          24.635644
hessian_block_lv             1       1          26.107603          -2.124816           6.094885          -2.124816          24.827468           2.881786           6.094885           2.881786           5.421390
hessian_block_lv_atom        1       1          -0.632776          -0.862140           0.647941          -0.057230           0.324741          -1.184182           0.289184           0.213350          -1.812528
hessian_block_lv_atom        1       2           0.372191           0.476466          -2.506516           2.055389           1.664831          -9.045538           1.118883           1.085219          -3.873791
hessian_block_lv_atom        1       3           0.877997           1.193730          -2.421941          -0.386025          -0.272556           1.950791           0.686200           0.776198          -2.166428
hessian_block_lv_atom        1       4           0.046012           0.061225          -0.402140           1.552004           0.918460          -6.184339           0.631772           0.442187          -3.050599
hessian_block_lv_atom        1       5          -0.433274          -0.676418           0.866103           0.690705           1.056501          -1.638687          -3.339080          -3.679303          -0.315587
hessian_block_lv_atom        1       6          -1.350264          -1.770990           3.526274          -1.363403          -1.630496           4.646676          -5.509452          -6.959182           4.450852
hessian_block_lv_atom        1       7           0.137289           0.409573          -1.758160          -1.169797          -1.164840           2.117492           1.628718           2.674300           4.762535
hessian_block_lv_atom        1       8          -1.055953          -1.066282           3.008117           0.757112           0.328645           2.181880           3.743700           4.170012          -3.278388
hessian_block_lv_atom        1       9           0.150830           0.216046          -0.934690          -1.910713          -1.613927           9.078538           2.577859           3.331460           3.629100
hessian_block_lv_atom        1      10           2.106732           2.832399          -2.687499           2.244066           2.378116          -5.080537           4.914594           6.039861          -2.091553
hessian_block_lv_atom        1      11          -0.278388          -0.492380           4.770214          -1.361092          -0.933604           5.681525          -2.711058          -3.396958          -1.932321
hessian_block_lv_atom        1      12           0.059604          -0.321230          -2.107703          -1.051015          -1.055872          -2.523621          -4.031323          -4.697144           5.678707
symmetry_n_params 39 3 36
symmetry_params a1 b2 c3 x0 x1 x2 x3 x4 x5 x6 x7 x8 x9 x10 x11 x12 x13 x14 x15 x16 x17 x18 x19 x20 x21 x22 x23 x24 x25 x26 x27 x28 x29 x30 x31 x32 x33 x34 x35
symmetry_lv a1 , 0 , 0 
symmetry_lv 0 , b2 , 0 
symmetry_lv 0 , 0 , c3
symmetry_frac x0 , x1 , x2
symmetry_frac x3 , x4 , x5
symmetry_frac x6 , x7 , x8
symmetry_frac x9 , x10 , x11
symmetry_frac x12 , x13 , x14
symmetry_frac x15 , x16 , x17
symmetry_frac x18 , x19 , x20
symmetry_frac x21 , x22 , x23
symmetry_frac x24 , x25 , x26
symmetry_frac x27 , x28 , x29
symmetry_frac x30 , x31 , x32
symmetry_frac x33 , x34 , x35
