# 
# This is the geometry file that corresponds to the current relaxation step.
# If you do not want this file to be written, set the "write_restart_geometry" flag to .false.
#  aims_uuid : 7E4F315E-2208-468D-A1B6-98CA8E3C53D1                                
# 
lattice_vector      3.71990018      0.00000000      0.00000000
lattice_vector     -1.85995009      3.22152805      0.00000000
lattice_vector      0.00000000      0.00000000    101.66245194
atom_frac       0.00063411      0.66721419      0.50133673 Se
atom_frac       0.33413484      0.33419065      0.47531810 Se
atom_frac       0.66739923      0.00076334      0.48833001 Pt
# 
# What follows is the current estimated Hessian matrix constructed by the BFGS algorithm.
# This is NOT the true Hessian matrix of the system.
# If you do not want this information here, switch it off using the "hessian_to_restart_geometry" keyword.
# 
trust_radius             0.0493216611
hessian_block                1       1           1.161203          -0.704387          -5.619477          -0.704387           0.997330           1.433234          -5.619477           1.433234        1020.622746
hessian_block                1       2          -0.015880           0.092322           1.910507           0.080860           0.023409          -0.514364          -0.624088           1.402321         -12.589887
hessian_block                1       3          -0.901316           0.490061           3.708970           0.501524          -0.776732          -0.918870           6.243566          -2.835555        -828.879922
hessian_block                2       2           1.112293          -0.591832           0.783720          -0.591832           1.079361          -1.909455           0.783720          -1.909455         946.103929
hessian_block                2       3          -0.852406           0.388969          -0.159632           0.377507          -0.858763           0.507134          -2.694227           2.423819        -754.361105
hessian_block                3       3           1.997729          -1.001034          -3.549338          -1.001034           1.879502           0.411736          -3.549338           0.411736        1762.393964
hessian_block_lv             1       1          18.442173           0.091818           0.000000           0.091818           0.004802           0.000000           0.000000           0.000000           0.000000
hessian_block_lv_atom        1       1          -0.637757           0.008878           0.000000           0.362946          -0.011125           0.000000          70.710383           0.880455           0.000000
hessian_block_lv_atom        1       2           0.045201          -0.003836           0.000000           0.007453           0.007480           0.000000         -53.860324          -1.425657           0.000000
hessian_block_lv_atom        1       3           0.592556          -0.005042           0.000000          -0.370400           0.003646           0.000000         -16.850059           0.545201           0.000000
