# 
# This is the geometry file that corresponds to the current relaxation step.
# If you do not want this file to be written, set the "write_restart_geometry" flag to .false.
#  aims_uuid : 3DD24A1F-31B5-433C-AB3E-EBD2239CB1F8                                
# 
lattice_vector      5.69523939      0.00000000      0.00000000
lattice_vector      0.00000000      5.89257330      0.00000000
lattice_vector      0.00000000      0.00000000    101.32619312
atom_frac       0.71682470     -0.00269777      0.49985694 Se
atom_frac       0.60860187      0.61640002      0.49231420 Pd
atom_frac       0.00043345      0.49724943      0.49985606 Se
atom_frac       0.10856303      0.11644600      0.49231371 Pd
atom_frac       0.21687873      0.73551683      0.48478207 Se
atom_frac       0.50037804      0.23556969      0.48478293 Se
# 
# What follows is the current estimated Hessian matrix constructed by the BFGS algorithm.
# This is NOT the true Hessian matrix of the system.
# If you do not want this information here, switch it off using the "hessian_to_restart_geometry" keyword.
# 
trust_radius             0.1120680336
hessian_block                1       1           0.848752           0.003728           3.348244           0.003728           1.209439          -2.851052           3.348244          -2.851052         268.423134
hessian_block                1       2           0.005007          -0.152385          -0.730728          -0.167810          -0.604558          -4.362320           0.064771          -3.462971         -52.401330
hessian_block                1       3          -0.062622           0.030599          -1.902577           0.035678           0.248405          -2.059203           1.689890          -0.942608          75.891603
hessian_block                1       4          -0.347276          -0.065091           2.962693          -0.163488          -0.020077           0.451402           1.789104          -0.908706         -52.070783
hessian_block                1       5           0.045381           0.088118           1.917266           0.088522          -0.204088           1.860908          -1.712996           2.096808         -43.696802
hessian_block                1       6          -0.200241           0.095032          -5.594898           0.203370          -0.325150           6.960265          -5.179014           6.068528        -105.079015
hessian_block                2       2           1.250050           0.020445           4.995470           0.020445           1.424004           3.693926           4.995470           3.693926         228.481484
hessian_block                2       3          -0.379940           0.165911          -1.847282           0.287189          -0.267978           2.284658          -1.040958          -1.660728         -35.663979
hessian_block                2       4          -0.213294          -0.011800          -1.475069          -0.280558           0.043812          -0.602884          -1.615967           1.629815          71.461058
hessian_block                2       5          -0.418014          -0.089352          -1.690074           0.281448           0.023852           1.926148          -0.962579           1.708793         -52.164490
hessian_block                2       6           0.045192           0.082606          -0.047818          -0.156139          -0.315162          -3.838877          -0.645237          -1.009486         -68.645936
hessian_block                3       3           0.868633          -0.047019          -3.973391          -0.047019           1.405455          -3.041259          -3.973391          -3.041259         259.450166
hessian_block                3       4           0.000709          -0.125211           0.450526           0.186710          -0.621796          -3.358590           1.423814          -2.671416         -46.097681
hessian_block                3       5          -0.173988          -0.138623           4.961545          -0.279591          -0.195023           6.376612           4.680166           5.176287        -116.463256
hessian_block                3       6           0.036209          -0.012014          -2.087612          -0.056610          -0.265092           2.626574           1.619270           0.310933         -46.050046
hessian_block                4       4           1.198724           0.237788          -4.816495           0.237788           1.397331           4.514687          -4.816495           4.514687         211.329315
hessian_block                4       5           0.019093           0.157537           0.827074          -0.047068          -0.547257          -2.146703           0.191008          -2.400802         -43.849841
hessian_block                4       6          -0.368956          -0.137989           2.392469           0.011383           0.051958          -0.417678           2.687336           1.396187         -49.705261
hessian_block                5       5           0.950298          -0.049464          -4.055963          -0.049464           1.159257          -4.691109          -4.055963          -4.691109         264.268574
hessian_block                5       6          -0.133769           0.006153           1.860364           0.031784           0.067231          -1.889978          -1.959849          -3.325856          82.972622
hessian_block                6       6           0.910565          -0.033788           3.477495          -0.033788           1.090186          -3.440306           3.477495          -3.440306         277.574443
hessian_block_lv             1       1          18.070667           9.259807          -0.471426           9.259807          10.392090          -0.059011          -0.471426          -0.059011           0.071578
hessian_block_lv_atom        1       1          -0.107123           0.179282          -0.005074          -0.519756           0.155810          -0.026190           9.163643           8.918754           0.715774
hessian_block_lv_atom        1       2          -0.187869          -0.209340          -0.018661           0.066049          -0.223616           0.005232          -4.622918          -5.856562          -0.546639
hessian_block_lv_atom        1       3           0.152546          -0.171826           0.007148          -0.828114          -0.203944          -0.060767           7.874124           7.226371           0.561557
hessian_block_lv_atom        1       4           0.104402           0.199785           0.015318           0.202593           0.120947           0.019656          -1.916754          -4.421328          -0.284819
hessian_block_lv_atom        1       5          -0.062563           0.208694          -0.003205           0.385627          -0.105327           0.013763          -5.869611          -3.755593          -0.297426
hessian_block_lv_atom        1       6           0.100607          -0.206596           0.004474           0.693600           0.256129           0.048307          -4.628484          -2.111642          -0.148447
